generated by phonopy                    
   0.9965883740445292     
    36.3010289330663412   -0.0000000000000000    0.0000000000000000
    -0.0000000000000000    5.1556287178946620    0.0000000000000000
     0.0000000000000000   -2.5778143589473310    4.4649054421773773
   Co   Ru
    56    16
Direct
  0.0320697101247024  0.3333333333333286  0.1666666666666714
  0.0320697101247024  0.3333333333333286  0.6666666666666714
  0.0320697101247024  0.8333333333333286  0.1666666666666714
  0.0320697101247024  0.8333333333333286  0.6666666666666714
  0.0862111793525144  0.1666666666666714  0.3333333333333286
  0.0862111793525144  0.1666666666666714  0.8333333333333286
  0.0862111793525144  0.6666666666666714  0.3333333333333286
  0.0862111793525144  0.6666666666666714  0.8333333333333286
  0.1402365122695786  0.3333333333333286  0.1666666666666714
  0.1402365122695786  0.3333333333333286  0.6666666666666714
  0.1402365122695786  0.8333333333333286  0.1666666666666714
  0.1402365122695786  0.8333333333333286  0.6666666666666714
  0.1944509520256270  0.1666666666666714  0.3333333333333286
  0.1944509520256270  0.1666666666666714  0.8333333333333286
  0.1944509520256270  0.6666666666666714  0.3333333333333286
  0.1944509520256270  0.6666666666666714  0.8333333333333286
  0.2486619256307712  0.3333333333333286  0.1666666666666714
  0.2486619256307712  0.3333333333333286  0.6666666666666714
  0.2486619256307712  0.8333333333333286  0.1666666666666714
  0.2486619256307712  0.8333333333333286  0.6666666666666714
  0.3026807839713555  0.1666666666666714  0.3333333333333286
  0.3026807839713555  0.1666666666666714  0.8333333333333286
  0.3026807839713555  0.6666666666666714  0.3333333333333286
  0.3026807839713555  0.6666666666666714  0.8333333333333286
  0.3568137725859194  0.3333333333333286  0.1666666666666714
  0.3568137725859194  0.3333333333333286  0.6666666666666714
  0.3568137725859194  0.8333333333333286  0.1666666666666714
  0.3568137725859194  0.8333333333333286  0.6666666666666714
  0.5320697101247096  0.1666666666666714  0.3333333333333286
  0.5320697101247096  0.1666666666666714  0.8333333333333286
  0.5320697101247096  0.6666666666666714  0.3333333333333286
  0.5320697101247096  0.6666666666666714  0.8333333333333286
  0.5862111793525068  0.3333333333333286  0.1666666666666714
  0.5862111793525068  0.3333333333333286  0.6666666666666714
  0.5862111793525068  0.8333333333333286  0.1666666666666714
  0.5862111793525068  0.8333333333333286  0.6666666666666714
  0.6402365122695783  0.1666666666666714  0.3333333333333286
  0.6402365122695783  0.1666666666666714  0.8333333333333286
  0.6402365122695783  0.6666666666666714  0.3333333333333286
  0.6402365122695783  0.6666666666666714  0.8333333333333286
  0.6944509520256267  0.3333333333333286  0.1666666666666714
  0.6944509520256267  0.3333333333333286  0.6666666666666714
  0.6944509520256267  0.8333333333333286  0.1666666666666714
  0.6944509520256267  0.8333333333333286  0.6666666666666714
  0.7486619256307712  0.1666666666666714  0.3333333333333286
  0.7486619256307712  0.1666666666666714  0.8333333333333286
  0.7486619256307712  0.6666666666666714  0.3333333333333286
  0.7486619256307712  0.6666666666666714  0.8333333333333286
  0.8026807839713552  0.3333333333333286  0.1666666666666714
  0.8026807839713552  0.3333333333333286  0.6666666666666714
  0.8026807839713552  0.8333333333333286  0.1666666666666714
  0.8026807839713552  0.8333333333333286  0.6666666666666714
  0.8568137725859193  0.1666666666666714  0.3333333333333286
  0.8568137725859193  0.1666666666666714  0.8333333333333286
  0.8568137725859193  0.6666666666666714  0.3333333333333286
  0.8568137725859193  0.6666666666666714  0.8333333333333286
  0.4144932576853264  0.1666666666666714  0.3333333333333286
  0.4144932576853264  0.1666666666666714  0.8333333333333286
  0.4144932576853264  0.6666666666666714  0.3333333333333286
  0.4144932576853264  0.6666666666666714  0.8333333333333286
  0.4743819063542052  0.3333333333333286  0.1666666666666714
  0.4743819063542052  0.3333333333333286  0.6666666666666714
  0.4743819063542052  0.8333333333333286  0.1666666666666714
  0.4743819063542052  0.8333333333333286  0.6666666666666714
  0.9144932576853260  0.3333333333333286  0.1666666666666714
  0.9144932576853260  0.3333333333333286  0.6666666666666714
  0.9144932576853260  0.8333333333333286  0.1666666666666714
  0.9144932576853260  0.8333333333333286  0.6666666666666714
  0.9743819063542047  0.1666666666666714  0.3333333333333286
  0.9743819063542047  0.1666666666666714  0.8333333333333286
  0.9743819063542047  0.6666666666666714  0.3333333333333286
  0.9743819063542047  0.6666666666666714  0.8333333333333286
 
  0.00000000E+00  0.00000000E+00  0.00000000E+00
  0.00000000E+00  0.00000000E+00  0.00000000E+00
  0.00000000E+00  0.00000000E+00  0.00000000E+00
  0.00000000E+00  0.00000000E+00  0.00000000E+00
  0.00000000E+00  0.00000000E+00  0.00000000E+00
  0.00000000E+00  0.00000000E+00  0.00000000E+00
  0.00000000E+00  0.00000000E+00  0.00000000E+00
  0.00000000E+00  0.00000000E+00  0.00000000E+00
  0.00000000E+00  0.00000000E+00  0.00000000E+00
  0.00000000E+00  0.00000000E+00  0.00000000E+00
  0.00000000E+00  0.00000000E+00  0.00000000E+00
  0.00000000E+00  0.00000000E+00  0.00000000E+00
  0.00000000E+00  0.00000000E+00  0.00000000E+00
  0.00000000E+00  0.00000000E+00  0.00000000E+00
  0.00000000E+00  0.00000000E+00  0.00000000E+00
  0.00000000E+00  0.00000000E+00  0.00000000E+00
  0.00000000E+00  0.00000000E+00  0.00000000E+00
  0.00000000E+00  0.00000000E+00  0.00000000E+00
  0.00000000E+00  0.00000000E+00  0.00000000E+00
  0.00000000E+00  0.00000000E+00  0.00000000E+00
  0.00000000E+00  0.00000000E+00  0.00000000E+00
  0.00000000E+00  0.00000000E+00  0.00000000E+00
  0.00000000E+00  0.00000000E+00  0.00000000E+00
  0.00000000E+00  0.00000000E+00  0.00000000E+00
  0.00000000E+00  0.00000000E+00  0.00000000E+00
  0.00000000E+00  0.00000000E+00  0.00000000E+00
  0.00000000E+00  0.00000000E+00  0.00000000E+00
  0.00000000E+00  0.00000000E+00  0.00000000E+00
  0.00000000E+00  0.00000000E+00  0.00000000E+00
  0.00000000E+00  0.00000000E+00  0.00000000E+00
  0.00000000E+00  0.00000000E+00  0.00000000E+00
  0.00000000E+00  0.00000000E+00  0.00000000E+00
  0.00000000E+00  0.00000000E+00  0.00000000E+00
  0.00000000E+00  0.00000000E+00  0.00000000E+00
  0.00000000E+00  0.00000000E+00  0.00000000E+00
  0.00000000E+00  0.00000000E+00  0.00000000E+00
  0.00000000E+00  0.00000000E+00  0.00000000E+00
  0.00000000E+00  0.00000000E+00  0.00000000E+00
  0.00000000E+00  0.00000000E+00  0.00000000E+00
  0.00000000E+00  0.00000000E+00  0.00000000E+00
  0.00000000E+00  0.00000000E+00  0.00000000E+00
  0.00000000E+00  0.00000000E+00  0.00000000E+00
  0.00000000E+00  0.00000000E+00  0.00000000E+00
  0.00000000E+00  0.00000000E+00  0.00000000E+00
  0.00000000E+00  0.00000000E+00  0.00000000E+00
  0.00000000E+00  0.00000000E+00  0.00000000E+00
  0.00000000E+00  0.00000000E+00  0.00000000E+00
  0.00000000E+00  0.00000000E+00  0.00000000E+00
  0.00000000E+00  0.00000000E+00  0.00000000E+00
  0.00000000E+00  0.00000000E+00  0.00000000E+00
  0.00000000E+00  0.00000000E+00  0.00000000E+00
  0.00000000E+00  0.00000000E+00  0.00000000E+00
  0.00000000E+00  0.00000000E+00  0.00000000E+00
  0.00000000E+00  0.00000000E+00  0.00000000E+00
  0.00000000E+00  0.00000000E+00  0.00000000E+00
  0.00000000E+00  0.00000000E+00  0.00000000E+00
  0.00000000E+00  0.00000000E+00  0.00000000E+00
  0.00000000E+00  0.00000000E+00  0.00000000E+00
  0.00000000E+00  0.00000000E+00  0.00000000E+00
  0.00000000E+00  0.00000000E+00  0.00000000E+00
  0.00000000E+00  0.00000000E+00  0.00000000E+00
  0.00000000E+00  0.00000000E+00  0.00000000E+00
  0.00000000E+00  0.00000000E+00  0.00000000E+00
  0.00000000E+00  0.00000000E+00  0.00000000E+00
  0.00000000E+00  0.00000000E+00  0.00000000E+00
  0.00000000E+00  0.00000000E+00  0.00000000E+00
  0.00000000E+00  0.00000000E+00  0.00000000E+00
  0.00000000E+00  0.00000000E+00  0.00000000E+00
  0.00000000E+00  0.00000000E+00  0.00000000E+00
  0.00000000E+00  0.00000000E+00  0.00000000E+00
  0.00000000E+00  0.00000000E+00  0.00000000E+00
  0.00000000E+00  0.00000000E+00  0.00000000E+00
