generated by phonopy                    
    1.009966995621178     
    36.3016082284429942    0.0000000000000000   -0.0000000000000000
    -0.0000000000000000    5.1555875813728784    0.0000000000000001
     0.0000000000000000   -2.5777937906864392    4.4648698169044874
   Co   Ru
    56    16
Direct
  0.0317009771085764  0.3333333333333286  0.1666666666666714
  0.0317009771085764  0.3333333333333286  0.6666666666666714
  0.0317009771085764  0.8333333333333286  0.1666666666666714
  0.0317009771085764  0.8333333333333286  0.6666666666666714
  0.0860035689093820  0.1666666666666714  0.3333333333333286
  0.0860035689093820  0.1666666666666714  0.8333333333333286
  0.0860035689093820  0.6666666666666714  0.3333333333333286
  0.0860035689093820  0.6666666666666714  0.8333333333333286
  0.1401399528457409  0.3333333333333286  0.1666666666666714
  0.1401399528457409  0.3333333333333286  0.6666666666666714
  0.1401399528457409  0.8333333333333286  0.1666666666666714
  0.1401399528457409  0.8333333333333286  0.6666666666666714
  0.1944461254156309  0.1666666666666714  0.3333333333333286
  0.1944461254156309  0.1666666666666714  0.8333333333333286
  0.1944461254156309  0.6666666666666714  0.3333333333333286
  0.1944461254156309  0.6666666666666714  0.8333333333333286
  0.2487521841288706  0.3333333333333286  0.1666666666666714
  0.2487521841288706  0.3333333333333286  0.6666666666666714
  0.2487521841288706  0.8333333333333286  0.1666666666666714
  0.2487521841288706  0.8333333333333286  0.6666666666666714
  0.3028861414108036  0.1666666666666714  0.3333333333333286
  0.3028861414108036  0.1666666666666714  0.8333333333333286
  0.3028861414108036  0.6666666666666714  0.3333333333333286
  0.3028861414108036  0.6666666666666714  0.8333333333333286
  0.3571866695325327  0.3333333333333286  0.1666666666666714
  0.3571866695325327  0.3333333333333286  0.6666666666666714
  0.3571866695325327  0.8333333333333286  0.1666666666666714
  0.3571866695325327  0.8333333333333286  0.6666666666666714
  0.5317009771085836  0.1666666666666714  0.3333333333333286
  0.5317009771085836  0.1666666666666714  0.8333333333333286
  0.5317009771085836  0.6666666666666714  0.3333333333333286
  0.5317009771085836  0.6666666666666714  0.8333333333333286
  0.5860035689093748  0.3333333333333286  0.1666666666666714
  0.5860035689093748  0.3333333333333286  0.6666666666666714
  0.5860035689093748  0.8333333333333286  0.1666666666666714
  0.5860035689093748  0.8333333333333286  0.6666666666666714
  0.6401399528457405  0.1666666666666714  0.3333333333333286
  0.6401399528457405  0.1666666666666714  0.8333333333333286
  0.6401399528457405  0.6666666666666714  0.3333333333333286
  0.6401399528457405  0.6666666666666714  0.8333333333333286
  0.6944461254156309  0.3333333333333286  0.1666666666666714
  0.6944461254156309  0.3333333333333286  0.6666666666666714
  0.6944461254156309  0.8333333333333286  0.1666666666666714
  0.6944461254156309  0.8333333333333286  0.6666666666666714
  0.7487521841288709  0.1666666666666714  0.3333333333333286
  0.7487521841288709  0.1666666666666714  0.8333333333333286
  0.7487521841288709  0.6666666666666714  0.3333333333333286
  0.7487521841288709  0.6666666666666714  0.8333333333333286
  0.8028861414108037  0.3333333333333286  0.1666666666666714
  0.8028861414108037  0.3333333333333286  0.6666666666666714
  0.8028861414108037  0.8333333333333286  0.1666666666666714
  0.8028861414108037  0.8333333333333286  0.6666666666666714
  0.8571866695325326  0.1666666666666714  0.3333333333333286
  0.8571866695325326  0.1666666666666714  0.8333333333333286
  0.8571866695325326  0.6666666666666714  0.3333333333333286
  0.8571866695325326  0.6666666666666714  0.8333333333333286
  0.4148563562815412  0.1666666666666714  0.3333333333333286
  0.4148563562815412  0.1666666666666714  0.8333333333333286
  0.4148563562815412  0.6666666666666714  0.3333333333333286
  0.4148563562815412  0.6666666666666714  0.8333333333333286
  0.4740280243669218  0.3333333333333286  0.1666666666666714
  0.4740280243669218  0.3333333333333286  0.6666666666666714
  0.4740280243669218  0.8333333333333286  0.1666666666666714
  0.4740280243669218  0.8333333333333286  0.6666666666666714
  0.9148563562815413  0.3333333333333286  0.1666666666666714
  0.9148563562815413  0.3333333333333286  0.6666666666666714
  0.9148563562815413  0.8333333333333286  0.1666666666666714
  0.9148563562815413  0.8333333333333286  0.6666666666666714
  0.9740280243669217  0.1666666666666714  0.3333333333333286
  0.9740280243669217  0.1666666666666714  0.8333333333333286
  0.9740280243669217  0.6666666666666714  0.3333333333333286
  0.9740280243669217  0.6666666666666714  0.8333333333333286
 
  0.00000000E+00  0.00000000E+00  0.00000000E+00
  0.00000000E+00  0.00000000E+00  0.00000000E+00
  0.00000000E+00  0.00000000E+00  0.00000000E+00
  0.00000000E+00  0.00000000E+00  0.00000000E+00
  0.00000000E+00  0.00000000E+00  0.00000000E+00
  0.00000000E+00  0.00000000E+00  0.00000000E+00
  0.00000000E+00  0.00000000E+00  0.00000000E+00
  0.00000000E+00  0.00000000E+00  0.00000000E+00
  0.00000000E+00  0.00000000E+00  0.00000000E+00
  0.00000000E+00  0.00000000E+00  0.00000000E+00
  0.00000000E+00  0.00000000E+00  0.00000000E+00
  0.00000000E+00  0.00000000E+00  0.00000000E+00
  0.00000000E+00  0.00000000E+00  0.00000000E+00
  0.00000000E+00  0.00000000E+00  0.00000000E+00
  0.00000000E+00  0.00000000E+00  0.00000000E+00
  0.00000000E+00  0.00000000E+00  0.00000000E+00
  0.00000000E+00  0.00000000E+00  0.00000000E+00
  0.00000000E+00  0.00000000E+00  0.00000000E+00
  0.00000000E+00  0.00000000E+00  0.00000000E+00
  0.00000000E+00  0.00000000E+00  0.00000000E+00
  0.00000000E+00  0.00000000E+00  0.00000000E+00
  0.00000000E+00  0.00000000E+00  0.00000000E+00
  0.00000000E+00  0.00000000E+00  0.00000000E+00
  0.00000000E+00  0.00000000E+00  0.00000000E+00
  0.00000000E+00  0.00000000E+00  0.00000000E+00
  0.00000000E+00  0.00000000E+00  0.00000000E+00
  0.00000000E+00  0.00000000E+00  0.00000000E+00
  0.00000000E+00  0.00000000E+00  0.00000000E+00
  0.00000000E+00  0.00000000E+00  0.00000000E+00
  0.00000000E+00  0.00000000E+00  0.00000000E+00
  0.00000000E+00  0.00000000E+00  0.00000000E+00
  0.00000000E+00  0.00000000E+00  0.00000000E+00
  0.00000000E+00  0.00000000E+00  0.00000000E+00
  0.00000000E+00  0.00000000E+00  0.00000000E+00
  0.00000000E+00  0.00000000E+00  0.00000000E+00
  0.00000000E+00  0.00000000E+00  0.00000000E+00
  0.00000000E+00  0.00000000E+00  0.00000000E+00
  0.00000000E+00  0.00000000E+00  0.00000000E+00
  0.00000000E+00  0.00000000E+00  0.00000000E+00
  0.00000000E+00  0.00000000E+00  0.00000000E+00
  0.00000000E+00  0.00000000E+00  0.00000000E+00
  0.00000000E+00  0.00000000E+00  0.00000000E+00
  0.00000000E+00  0.00000000E+00  0.00000000E+00
  0.00000000E+00  0.00000000E+00  0.00000000E+00
  0.00000000E+00  0.00000000E+00  0.00000000E+00
  0.00000000E+00  0.00000000E+00  0.00000000E+00
  0.00000000E+00  0.00000000E+00  0.00000000E+00
  0.00000000E+00  0.00000000E+00  0.00000000E+00
  0.00000000E+00  0.00000000E+00  0.00000000E+00
  0.00000000E+00  0.00000000E+00  0.00000000E+00
  0.00000000E+00  0.00000000E+00  0.00000000E+00
  0.00000000E+00  0.00000000E+00  0.00000000E+00
  0.00000000E+00  0.00000000E+00  0.00000000E+00
  0.00000000E+00  0.00000000E+00  0.00000000E+00
  0.00000000E+00  0.00000000E+00  0.00000000E+00
  0.00000000E+00  0.00000000E+00  0.00000000E+00
  0.00000000E+00  0.00000000E+00  0.00000000E+00
  0.00000000E+00  0.00000000E+00  0.00000000E+00
  0.00000000E+00  0.00000000E+00  0.00000000E+00
  0.00000000E+00  0.00000000E+00  0.00000000E+00
  0.00000000E+00  0.00000000E+00  0.00000000E+00
  0.00000000E+00  0.00000000E+00  0.00000000E+00
  0.00000000E+00  0.00000000E+00  0.00000000E+00
  0.00000000E+00  0.00000000E+00  0.00000000E+00
  0.00000000E+00  0.00000000E+00  0.00000000E+00
  0.00000000E+00  0.00000000E+00  0.00000000E+00
  0.00000000E+00  0.00000000E+00  0.00000000E+00
  0.00000000E+00  0.00000000E+00  0.00000000E+00
  0.00000000E+00  0.00000000E+00  0.00000000E+00
  0.00000000E+00  0.00000000E+00  0.00000000E+00
  0.00000000E+00  0.00000000E+00  0.00000000E+00
  0.00000000E+00  0.00000000E+00  0.00000000E+00
