generated by phonopy                    
    1.003322283542089     
    36.3091360975427335   -0.0000000000000000    0.0000000000000000
    -0.0000000000000000    5.1550531070718204    0.0000000000000000
    -0.0000000000000000   -2.5775265535359102    4.4644069485821065
   Co   Ru
    56    16
Direct
  0.0319101783616725  0.3333333333333286  0.1666666666666714
  0.0319101783616725  0.3333333333333286  0.6666666666666714
  0.0319101783616725  0.8333333333333286  0.1666666666666714
  0.0319101783616725  0.8333333333333286  0.6666666666666714
  0.0861438787719947  0.1666666666666714  0.3333333333333286
  0.0861438787719947  0.1666666666666714  0.8333333333333286
  0.0861438787719947  0.6666666666666714  0.3333333333333286
  0.0861438787719947  0.6666666666666714  0.8333333333333286
  0.1402162742010138  0.3333333333333286  0.1666666666666714
  0.1402162742010138  0.3333333333333286  0.6666666666666714
  0.1402162742010138  0.8333333333333286  0.1666666666666714
  0.1402162742010138  0.8333333333333286  0.6666666666666714
  0.1944461254156297  0.1666666666666714  0.3333333333333286
  0.1944461254156297  0.1666666666666714  0.8333333333333286
  0.1944461254156297  0.6666666666666714  0.3333333333333286
  0.1944461254156297  0.6666666666666714  0.8333333333333286
  0.2486758627735940  0.3333333333333286  0.1666666666666714
  0.2486758627735940  0.3333333333333286  0.6666666666666714
  0.2486758627735940  0.8333333333333286  0.1666666666666714
  0.2486758627735940  0.8333333333333286  0.6666666666666714
  0.3027458315481953  0.1666666666666714  0.3333333333333286
  0.3027458315481953  0.1666666666666714  0.8333333333333286
  0.3027458315481953  0.6666666666666714  0.3333333333333286
  0.3027458315481953  0.6666666666666714  0.8333333333333286
  0.3569774682794377  0.3333333333333286  0.1666666666666714
  0.3569774682794377  0.3333333333333286  0.6666666666666714
  0.3569774682794377  0.8333333333333286  0.1666666666666714
  0.3569774682794377  0.8333333333333286  0.6666666666666714
  0.5319101783616800  0.1666666666666714  0.3333333333333286
  0.5319101783616800  0.1666666666666714  0.8333333333333286
  0.5319101783616800  0.6666666666666714  0.3333333333333286
  0.5319101783616800  0.6666666666666714  0.8333333333333286
  0.5861438787719878  0.3333333333333286  0.1666666666666714
  0.5861438787719878  0.3333333333333286  0.6666666666666714
  0.5861438787719878  0.8333333333333286  0.1666666666666714
  0.5861438787719878  0.8333333333333286  0.6666666666666714
  0.6402162742010138  0.1666666666666714  0.3333333333333286
  0.6402162742010138  0.1666666666666714  0.8333333333333286
  0.6402162742010138  0.6666666666666714  0.3333333333333286
  0.6402162742010138  0.6666666666666714  0.8333333333333286
  0.6944461254156293  0.3333333333333286  0.1666666666666714
  0.6944461254156293  0.3333333333333286  0.6666666666666714
  0.6944461254156293  0.8333333333333286  0.1666666666666714
  0.6944461254156293  0.8333333333333286  0.6666666666666714
  0.7486758627735942  0.1666666666666714  0.3333333333333286
  0.7486758627735942  0.1666666666666714  0.8333333333333286
  0.7486758627735942  0.6666666666666714  0.3333333333333286
  0.7486758627735942  0.6666666666666714  0.8333333333333286
  0.8027458315481953  0.3333333333333286  0.1666666666666714
  0.8027458315481953  0.3333333333333286  0.6666666666666714
  0.8027458315481953  0.8333333333333286  0.1666666666666714
  0.8027458315481953  0.8333333333333286  0.6666666666666714
  0.8569774682794373  0.1666666666666714  0.3333333333333286
  0.8569774682794373  0.1666666666666714  0.8333333333333286
  0.8569774682794373  0.6666666666666714  0.3333333333333286
  0.8569774682794373  0.6666666666666714  0.8333333333333286
  0.4146761256596724  0.1666666666666714  0.3333333333333286
  0.4146761256596724  0.1666666666666714  0.8333333333333286
  0.4146761256596724  0.6666666666666714  0.3333333333333286
  0.4146761256596724  0.6666666666666714  0.8333333333333286
  0.4742082549887899  0.3333333333333286  0.1666666666666714
  0.4742082549887899  0.3333333333333286  0.6666666666666714
  0.4742082549887899  0.8333333333333286  0.1666666666666714
  0.4742082549887899  0.8333333333333286  0.6666666666666714
  0.9146761256596727  0.3333333333333286  0.1666666666666714
  0.9146761256596727  0.3333333333333286  0.6666666666666714
  0.9146761256596727  0.8333333333333286  0.1666666666666714
  0.9146761256596727  0.8333333333333286  0.6666666666666714
  0.9742082549887898  0.1666666666666714  0.3333333333333286
  0.9742082549887898  0.1666666666666714  0.8333333333333286
  0.9742082549887898  0.6666666666666714  0.3333333333333286
  0.9742082549887898  0.6666666666666714  0.8333333333333286
 
  0.00000000E+00  0.00000000E+00  0.00000000E+00
  0.00000000E+00  0.00000000E+00  0.00000000E+00
  0.00000000E+00  0.00000000E+00  0.00000000E+00
  0.00000000E+00  0.00000000E+00  0.00000000E+00
  0.00000000E+00  0.00000000E+00  0.00000000E+00
  0.00000000E+00  0.00000000E+00  0.00000000E+00
  0.00000000E+00  0.00000000E+00  0.00000000E+00
  0.00000000E+00  0.00000000E+00  0.00000000E+00
  0.00000000E+00  0.00000000E+00  0.00000000E+00
  0.00000000E+00  0.00000000E+00  0.00000000E+00
  0.00000000E+00  0.00000000E+00  0.00000000E+00
  0.00000000E+00  0.00000000E+00  0.00000000E+00
  0.00000000E+00  0.00000000E+00  0.00000000E+00
  0.00000000E+00  0.00000000E+00  0.00000000E+00
  0.00000000E+00  0.00000000E+00  0.00000000E+00
  0.00000000E+00  0.00000000E+00  0.00000000E+00
  0.00000000E+00  0.00000000E+00  0.00000000E+00
  0.00000000E+00  0.00000000E+00  0.00000000E+00
  0.00000000E+00  0.00000000E+00  0.00000000E+00
  0.00000000E+00  0.00000000E+00  0.00000000E+00
  0.00000000E+00  0.00000000E+00  0.00000000E+00
  0.00000000E+00  0.00000000E+00  0.00000000E+00
  0.00000000E+00  0.00000000E+00  0.00000000E+00
  0.00000000E+00  0.00000000E+00  0.00000000E+00
  0.00000000E+00  0.00000000E+00  0.00000000E+00
  0.00000000E+00  0.00000000E+00  0.00000000E+00
  0.00000000E+00  0.00000000E+00  0.00000000E+00
  0.00000000E+00  0.00000000E+00  0.00000000E+00
  0.00000000E+00  0.00000000E+00  0.00000000E+00
  0.00000000E+00  0.00000000E+00  0.00000000E+00
  0.00000000E+00  0.00000000E+00  0.00000000E+00
  0.00000000E+00  0.00000000E+00  0.00000000E+00
  0.00000000E+00  0.00000000E+00  0.00000000E+00
  0.00000000E+00  0.00000000E+00  0.00000000E+00
  0.00000000E+00  0.00000000E+00  0.00000000E+00
  0.00000000E+00  0.00000000E+00  0.00000000E+00
  0.00000000E+00  0.00000000E+00  0.00000000E+00
  0.00000000E+00  0.00000000E+00  0.00000000E+00
  0.00000000E+00  0.00000000E+00  0.00000000E+00
  0.00000000E+00  0.00000000E+00  0.00000000E+00
  0.00000000E+00  0.00000000E+00  0.00000000E+00
  0.00000000E+00  0.00000000E+00  0.00000000E+00
  0.00000000E+00  0.00000000E+00  0.00000000E+00
  0.00000000E+00  0.00000000E+00  0.00000000E+00
  0.00000000E+00  0.00000000E+00  0.00000000E+00
  0.00000000E+00  0.00000000E+00  0.00000000E+00
  0.00000000E+00  0.00000000E+00  0.00000000E+00
  0.00000000E+00  0.00000000E+00  0.00000000E+00
  0.00000000E+00  0.00000000E+00  0.00000000E+00
  0.00000000E+00  0.00000000E+00  0.00000000E+00
  0.00000000E+00  0.00000000E+00  0.00000000E+00
  0.00000000E+00  0.00000000E+00  0.00000000E+00
  0.00000000E+00  0.00000000E+00  0.00000000E+00
  0.00000000E+00  0.00000000E+00  0.00000000E+00
  0.00000000E+00  0.00000000E+00  0.00000000E+00
  0.00000000E+00  0.00000000E+00  0.00000000E+00
  0.00000000E+00  0.00000000E+00  0.00000000E+00
  0.00000000E+00  0.00000000E+00  0.00000000E+00
  0.00000000E+00  0.00000000E+00  0.00000000E+00
  0.00000000E+00  0.00000000E+00  0.00000000E+00
  0.00000000E+00  0.00000000E+00  0.00000000E+00
  0.00000000E+00  0.00000000E+00  0.00000000E+00
  0.00000000E+00  0.00000000E+00  0.00000000E+00
  0.00000000E+00  0.00000000E+00  0.00000000E+00
  0.00000000E+00  0.00000000E+00  0.00000000E+00
  0.00000000E+00  0.00000000E+00  0.00000000E+00
  0.00000000E+00  0.00000000E+00  0.00000000E+00
  0.00000000E+00  0.00000000E+00  0.00000000E+00
  0.00000000E+00  0.00000000E+00  0.00000000E+00
  0.00000000E+00  0.00000000E+00  0.00000000E+00
  0.00000000E+00  0.00000000E+00  0.00000000E+00
  0.00000000E+00  0.00000000E+00  0.00000000E+00
