generated by phonopy                    
    1.006345527762100     
    40.3108584541965769   -0.0000000000000000    0.0000000000000000
    -0.0000000000000000    5.1416215454576610    0.0000000000000001
     0.0000000000000000   -2.5708107727288323    4.4527748750117420
   Co   Ru
    64    16
Direct
  0.0288437292522072  0.3333333333333286  0.1666666666666714
  0.0288437292522072  0.3333333333333286  0.6666666666666714
  0.0288437292522072  0.8333333333333286  0.1666666666666714
  0.0288437292522072  0.8333333333333286  0.6666666666666714
  0.0778065761078502  0.1666666666666714  0.3333333333333286
  0.0778065761078502  0.1666666666666714  0.8333333333333286
  0.0778065761078502  0.6666666666666714  0.3333333333333286
  0.0778065761078502  0.6666666666666714  0.8333333333333286
  0.1265772939222254  0.3333333333333286  0.1666666666666714
  0.1265772939222254  0.3333333333333286  0.6666666666666714
  0.1265772939222254  0.8333333333333286  0.1666666666666714
  0.1265772939222254  0.8333333333333286  0.6666666666666714
  0.1756227385772470  0.1666666666666714  0.3333333333333286
  0.1756227385772470  0.1666666666666714  0.8333333333333286
  0.1756227385772470  0.6666666666666714  0.3333333333333286
  0.1756227385772470  0.6666666666666714  0.8333333333333286
  0.2243807607544702  0.3333333333333286  0.1666666666666714
  0.2243807607544702  0.3333333333333286  0.6666666666666714
  0.2243807607544702  0.8333333333333286  0.1666666666666714
  0.2243807607544702  0.8333333333333286  0.6666666666666714
  0.2734247346406412  0.1666666666666714  0.3333333333333286
  0.2734247346406412  0.1666666666666714  0.8333333333333286
  0.2734247346406412  0.6666666666666714  0.3333333333333286
  0.2734247346406412  0.6666666666666714  0.8333333333333286
  0.3221932470728139  0.3333333333333286  0.1666666666666714
  0.3221932470728139  0.3333333333333286  0.6666666666666714
  0.3221932470728139  0.8333333333333286  0.1666666666666714
  0.3221932470728139  0.8333333333333286  0.6666666666666714
  0.3711540867444773  0.1666666666666714  0.3333333333333286
  0.3711540867444773  0.1666666666666714  0.8333333333333286
  0.3711540867444773  0.6666666666666714  0.3333333333333286
  0.3711540867444773  0.6666666666666714  0.8333333333333286
  0.5288437292522070  0.3333333333333286  0.1666666666666714
  0.5288437292522070  0.3333333333333286  0.6666666666666714
  0.5288437292522070  0.8333333333333286  0.1666666666666714
  0.5288437292522070  0.8333333333333286  0.6666666666666714
  0.5778065761078501  0.1666666666666714  0.3333333333333286
  0.5778065761078501  0.1666666666666714  0.8333333333333286
  0.5778065761078501  0.6666666666666714  0.3333333333333286
  0.5778065761078501  0.6666666666666714  0.8333333333333286
  0.6265772939222255  0.3333333333333286  0.1666666666666714
  0.6265772939222255  0.3333333333333286  0.6666666666666714
  0.6265772939222255  0.8333333333333286  0.1666666666666714
  0.6265772939222255  0.8333333333333286  0.6666666666666714
  0.6756227385772395  0.1666666666666714  0.3333333333333286
  0.6756227385772395  0.1666666666666714  0.8333333333333286
  0.6756227385772395  0.6666666666666714  0.3333333333333286
  0.6756227385772395  0.6666666666666714  0.8333333333333286
  0.7243807607544706  0.3333333333333286  0.1666666666666714
  0.7243807607544706  0.3333333333333286  0.6666666666666714
  0.7243807607544706  0.8333333333333286  0.1666666666666714
  0.7243807607544706  0.8333333333333286  0.6666666666666714
  0.7734247346406481  0.1666666666666714  0.3333333333333286
  0.7734247346406481  0.1666666666666714  0.8333333333333286
  0.7734247346406481  0.6666666666666714  0.3333333333333286
  0.7734247346406481  0.6666666666666714  0.8333333333333286
  0.8221932470728142  0.3333333333333286  0.1666666666666714
  0.8221932470728142  0.3333333333333286  0.6666666666666714
  0.8221932470728142  0.8333333333333286  0.1666666666666714
  0.8221932470728142  0.8333333333333286  0.6666666666666714
  0.8711540867444774  0.1666666666666714  0.3333333333333286
  0.8711540867444774  0.1666666666666714  0.8333333333333286
  0.8711540867444774  0.6666666666666714  0.3333333333333286
  0.8711540867444774  0.6666666666666714  0.8333333333333286
  0.4231511367421146  0.3333333333333286  0.1666666666666714
  0.4231511367421146  0.3333333333333286  0.6666666666666714
  0.4231511367421146  0.8333333333333286  0.1666666666666714
  0.4231511367421146  0.8333333333333286  0.6666666666666714
  0.4768456961859672  0.1666666666666714  0.3333333333333286
  0.4768456961859672  0.1666666666666714  0.8333333333333286
  0.4768456961859672  0.6666666666666714  0.3333333333333286
  0.4768456961859672  0.6666666666666714  0.8333333333333286
  0.9231511367421144  0.3333333333333286  0.1666666666666714
  0.9231511367421144  0.3333333333333286  0.6666666666666714
  0.9231511367421144  0.8333333333333286  0.1666666666666714
  0.9231511367421144  0.8333333333333286  0.6666666666666714
  0.9768456961859675  0.1666666666666714  0.3333333333333286
  0.9768456961859675  0.1666666666666714  0.8333333333333286
  0.9768456961859675  0.6666666666666714  0.3333333333333286
  0.9768456961859675  0.6666666666666714  0.8333333333333286
 
  0.00000000E+00  0.00000000E+00  0.00000000E+00
  0.00000000E+00  0.00000000E+00  0.00000000E+00
  0.00000000E+00  0.00000000E+00  0.00000000E+00
  0.00000000E+00  0.00000000E+00  0.00000000E+00
  0.00000000E+00  0.00000000E+00  0.00000000E+00
  0.00000000E+00  0.00000000E+00  0.00000000E+00
  0.00000000E+00  0.00000000E+00  0.00000000E+00
  0.00000000E+00  0.00000000E+00  0.00000000E+00
  0.00000000E+00  0.00000000E+00  0.00000000E+00
  0.00000000E+00  0.00000000E+00  0.00000000E+00
  0.00000000E+00  0.00000000E+00  0.00000000E+00
  0.00000000E+00  0.00000000E+00  0.00000000E+00
  0.00000000E+00  0.00000000E+00  0.00000000E+00
  0.00000000E+00  0.00000000E+00  0.00000000E+00
  0.00000000E+00  0.00000000E+00  0.00000000E+00
  0.00000000E+00  0.00000000E+00  0.00000000E+00
  0.00000000E+00  0.00000000E+00  0.00000000E+00
  0.00000000E+00  0.00000000E+00  0.00000000E+00
  0.00000000E+00  0.00000000E+00  0.00000000E+00
  0.00000000E+00  0.00000000E+00  0.00000000E+00
  0.00000000E+00  0.00000000E+00  0.00000000E+00
  0.00000000E+00  0.00000000E+00  0.00000000E+00
  0.00000000E+00  0.00000000E+00  0.00000000E+00
  0.00000000E+00  0.00000000E+00  0.00000000E+00
  0.00000000E+00  0.00000000E+00  0.00000000E+00
  0.00000000E+00  0.00000000E+00  0.00000000E+00
  0.00000000E+00  0.00000000E+00  0.00000000E+00
  0.00000000E+00  0.00000000E+00  0.00000000E+00
  0.00000000E+00  0.00000000E+00  0.00000000E+00
  0.00000000E+00  0.00000000E+00  0.00000000E+00
  0.00000000E+00  0.00000000E+00  0.00000000E+00
  0.00000000E+00  0.00000000E+00  0.00000000E+00
  0.00000000E+00  0.00000000E+00  0.00000000E+00
  0.00000000E+00  0.00000000E+00  0.00000000E+00
  0.00000000E+00  0.00000000E+00  0.00000000E+00
  0.00000000E+00  0.00000000E+00  0.00000000E+00
  0.00000000E+00  0.00000000E+00  0.00000000E+00
  0.00000000E+00  0.00000000E+00  0.00000000E+00
  0.00000000E+00  0.00000000E+00  0.00000000E+00
  0.00000000E+00  0.00000000E+00  0.00000000E+00
  0.00000000E+00  0.00000000E+00  0.00000000E+00
  0.00000000E+00  0.00000000E+00  0.00000000E+00
  0.00000000E+00  0.00000000E+00  0.00000000E+00
  0.00000000E+00  0.00000000E+00  0.00000000E+00
  0.00000000E+00  0.00000000E+00  0.00000000E+00
  0.00000000E+00  0.00000000E+00  0.00000000E+00
  0.00000000E+00  0.00000000E+00  0.00000000E+00
  0.00000000E+00  0.00000000E+00  0.00000000E+00
  0.00000000E+00  0.00000000E+00  0.00000000E+00
  0.00000000E+00  0.00000000E+00  0.00000000E+00
  0.00000000E+00  0.00000000E+00  0.00000000E+00
  0.00000000E+00  0.00000000E+00  0.00000000E+00
  0.00000000E+00  0.00000000E+00  0.00000000E+00
  0.00000000E+00  0.00000000E+00  0.00000000E+00
  0.00000000E+00  0.00000000E+00  0.00000000E+00
  0.00000000E+00  0.00000000E+00  0.00000000E+00
  0.00000000E+00  0.00000000E+00  0.00000000E+00
  0.00000000E+00  0.00000000E+00  0.00000000E+00
  0.00000000E+00  0.00000000E+00  0.00000000E+00
  0.00000000E+00  0.00000000E+00  0.00000000E+00
  0.00000000E+00  0.00000000E+00  0.00000000E+00
  0.00000000E+00  0.00000000E+00  0.00000000E+00
  0.00000000E+00  0.00000000E+00  0.00000000E+00
  0.00000000E+00  0.00000000E+00  0.00000000E+00
  0.00000000E+00  0.00000000E+00  0.00000000E+00
  0.00000000E+00  0.00000000E+00  0.00000000E+00
  0.00000000E+00  0.00000000E+00  0.00000000E+00
  0.00000000E+00  0.00000000E+00  0.00000000E+00
  0.00000000E+00  0.00000000E+00  0.00000000E+00
  0.00000000E+00  0.00000000E+00  0.00000000E+00
  0.00000000E+00  0.00000000E+00  0.00000000E+00
  0.00000000E+00  0.00000000E+00  0.00000000E+00
  0.00000000E+00  0.00000000E+00  0.00000000E+00
  0.00000000E+00  0.00000000E+00  0.00000000E+00
  0.00000000E+00  0.00000000E+00  0.00000000E+00
  0.00000000E+00  0.00000000E+00  0.00000000E+00
  0.00000000E+00  0.00000000E+00  0.00000000E+00
  0.00000000E+00  0.00000000E+00  0.00000000E+00
  0.00000000E+00  0.00000000E+00  0.00000000E+00
  0.00000000E+00  0.00000000E+00  0.00000000E+00
