generated by phonopy                    
  0.999899323197855     
    44.3009540942158111   -0.0000000000000000   -0.0000000000000000
     0.0000000000000000    5.1749049175946480   -0.0000000000000003
    -0.0000000000000000   -2.5874524587973244    4.4815991208059716
   Co   Ru
    64    24
Direct
  0.0278368138698719  0.3333333333333286  0.1666666666666714
  0.0278368138698719  0.3333333333333286  0.6666666666666714
  0.0278368138698719  0.8333333333333286  0.1666666666666714
  0.0278368138698719  0.8333333333333286  0.6666666666666714
  0.0716758662482443  0.1666666666666714  0.3333333333333286
  0.0716758662482443  0.1666666666666714  0.8333333333333286
  0.0716758662482443  0.6666666666666714  0.3333333333333286
  0.0716758662482443  0.6666666666666714  0.8333333333333286
  0.1157149579731287  0.3333333333333286  0.1666666666666714
  0.1157149579731287  0.3333333333333286  0.6666666666666714
  0.1157149579731287  0.8333333333333286  0.1666666666666714
  0.1157149579731287  0.8333333333333286  0.6666666666666714
  0.1597848982334029  0.1666666666666714  0.3333333333333286
  0.1597848982334029  0.1666666666666714  0.8333333333333286
  0.1597848982334029  0.6666666666666714  0.3333333333333286
  0.1597848982334029  0.6666666666666714  0.8333333333333286
  0.2038487194113612  0.3333333333333286  0.1666666666666714
  0.2038487194113612  0.3333333333333286  0.6666666666666714
  0.2038487194113612  0.8333333333333286  0.1666666666666714
  0.2038487194113612  0.8333333333333286  0.6666666666666714
  0.2479208984570080  0.1666666666666714  0.3333333333333286
  0.2479208984570080  0.1666666666666714  0.8333333333333286
  0.2479208984570080  0.6666666666666714  0.3333333333333286
  0.2479208984570080  0.6666666666666714  0.8333333333333286
  0.2919633866148373  0.3333333333333286  0.1666666666666714
  0.2919633866148373  0.3333333333333286  0.6666666666666714
  0.2919633866148373  0.8333333333333286  0.1666666666666714
  0.2919633866148373  0.8333333333333286  0.6666666666666714
  0.3358020182183990  0.1666666666666714  0.3333333333333286
  0.3358020182183990  0.1666666666666714  0.8333333333333286
  0.3358020182183990  0.6666666666666714  0.3333333333333286
  0.3358020182183990  0.6666666666666714  0.8333333333333286
  0.5278368138698724  0.1666666666666714  0.3333333333333286
  0.5278368138698724  0.1666666666666714  0.8333333333333286
  0.5278368138698724  0.6666666666666714  0.3333333333333286
  0.5278368138698724  0.6666666666666714  0.8333333333333286
  0.5716758662482441  0.3333333333333286  0.1666666666666714
  0.5716758662482441  0.3333333333333286  0.6666666666666714
  0.5716758662482441  0.8333333333333286  0.1666666666666714
  0.5716758662482441  0.8333333333333286  0.6666666666666714
  0.6157149579731286  0.1666666666666714  0.3333333333333286
  0.6157149579731286  0.1666666666666714  0.8333333333333286
  0.6157149579731286  0.6666666666666714  0.3333333333333286
  0.6157149579731286  0.6666666666666714  0.8333333333333286
  0.6597848982334031  0.3333333333333286  0.1666666666666714
  0.6597848982334031  0.3333333333333286  0.6666666666666714
  0.6597848982334031  0.8333333333333286  0.1666666666666714
  0.6597848982334031  0.8333333333333286  0.6666666666666714
  0.7038487194113615  0.1666666666666714  0.3333333333333286
  0.7038487194113615  0.1666666666666714  0.8333333333333286
  0.7038487194113615  0.6666666666666714  0.3333333333333286
  0.7038487194113615  0.6666666666666714  0.8333333333333286
  0.7479208984570085  0.3333333333333286  0.1666666666666714
  0.7479208984570085  0.3333333333333286  0.6666666666666714
  0.7479208984570085  0.8333333333333286  0.1666666666666714
  0.7479208984570085  0.8333333333333286  0.6666666666666714
  0.7919633866148448  0.1666666666666714  0.3333333333333286
  0.7919633866148448  0.1666666666666714  0.8333333333333286
  0.7919633866148448  0.6666666666666714  0.3333333333333286
  0.7919633866148448  0.6666666666666714  0.8333333333333286
  0.8358020182184062  0.3333333333333286  0.1666666666666714
  0.8358020182184062  0.3333333333333286  0.6666666666666714
  0.8358020182184062  0.8333333333333286  0.1666666666666714
  0.8358020182184062  0.8333333333333286  0.6666666666666714
  0.3829431022044020  0.3333333333333286  0.1666666666666714
  0.3829431022044020  0.3333333333333286  0.6666666666666714
  0.3829431022044020  0.8333333333333286  0.1666666666666714
  0.3829431022044020  0.8333333333333286  0.6666666666666714
  0.4318177165438861  0.1666666666666714  0.3333333333333286
  0.4318177165438861  0.1666666666666714  0.8333333333333286
  0.4318177165438861  0.6666666666666714  0.3333333333333286
  0.4318177165438861  0.6666666666666714  0.8333333333333286
  0.4806916222254793  0.3333333333333286  0.1666666666666714
  0.4806916222254793  0.3333333333333286  0.6666666666666714
  0.4806916222254793  0.8333333333333286  0.1666666666666714
  0.4806916222254793  0.8333333333333286  0.6666666666666714
  0.8829431022044028  0.1666666666666714  0.3333333333333286
  0.8829431022044028  0.1666666666666714  0.8333333333333286
  0.8829431022044028  0.6666666666666714  0.3333333333333286
  0.8829431022044028  0.6666666666666714  0.8333333333333286
  0.9318177165438858  0.3333333333333286  0.1666666666666714
  0.9318177165438858  0.3333333333333286  0.6666666666666714
  0.9318177165438858  0.8333333333333286  0.1666666666666714
  0.9318177165438858  0.8333333333333286  0.6666666666666714
  0.9806916222254716  0.1666666666666714  0.3333333333333286
  0.9806916222254716  0.1666666666666714  0.8333333333333286
  0.9806916222254716  0.6666666666666714  0.3333333333333286
  0.9806916222254716  0.6666666666666714  0.8333333333333286
 
  0.00000000E+00  0.00000000E+00  0.00000000E+00
  0.00000000E+00  0.00000000E+00  0.00000000E+00
  0.00000000E+00  0.00000000E+00  0.00000000E+00
  0.00000000E+00  0.00000000E+00  0.00000000E+00
  0.00000000E+00  0.00000000E+00  0.00000000E+00
  0.00000000E+00  0.00000000E+00  0.00000000E+00
  0.00000000E+00  0.00000000E+00  0.00000000E+00
  0.00000000E+00  0.00000000E+00  0.00000000E+00
  0.00000000E+00  0.00000000E+00  0.00000000E+00
  0.00000000E+00  0.00000000E+00  0.00000000E+00
  0.00000000E+00  0.00000000E+00  0.00000000E+00
  0.00000000E+00  0.00000000E+00  0.00000000E+00
  0.00000000E+00  0.00000000E+00  0.00000000E+00
  0.00000000E+00  0.00000000E+00  0.00000000E+00
  0.00000000E+00  0.00000000E+00  0.00000000E+00
  0.00000000E+00  0.00000000E+00  0.00000000E+00
  0.00000000E+00  0.00000000E+00  0.00000000E+00
  0.00000000E+00  0.00000000E+00  0.00000000E+00
  0.00000000E+00  0.00000000E+00  0.00000000E+00
  0.00000000E+00  0.00000000E+00  0.00000000E+00
  0.00000000E+00  0.00000000E+00  0.00000000E+00
  0.00000000E+00  0.00000000E+00  0.00000000E+00
  0.00000000E+00  0.00000000E+00  0.00000000E+00
  0.00000000E+00  0.00000000E+00  0.00000000E+00
  0.00000000E+00  0.00000000E+00  0.00000000E+00
  0.00000000E+00  0.00000000E+00  0.00000000E+00
  0.00000000E+00  0.00000000E+00  0.00000000E+00
  0.00000000E+00  0.00000000E+00  0.00000000E+00
  0.00000000E+00  0.00000000E+00  0.00000000E+00
  0.00000000E+00  0.00000000E+00  0.00000000E+00
  0.00000000E+00  0.00000000E+00  0.00000000E+00
  0.00000000E+00  0.00000000E+00  0.00000000E+00
  0.00000000E+00  0.00000000E+00  0.00000000E+00
  0.00000000E+00  0.00000000E+00  0.00000000E+00
  0.00000000E+00  0.00000000E+00  0.00000000E+00
  0.00000000E+00  0.00000000E+00  0.00000000E+00
  0.00000000E+00  0.00000000E+00  0.00000000E+00
  0.00000000E+00  0.00000000E+00  0.00000000E+00
  0.00000000E+00  0.00000000E+00  0.00000000E+00
  0.00000000E+00  0.00000000E+00  0.00000000E+00
  0.00000000E+00  0.00000000E+00  0.00000000E+00
  0.00000000E+00  0.00000000E+00  0.00000000E+00
  0.00000000E+00  0.00000000E+00  0.00000000E+00
  0.00000000E+00  0.00000000E+00  0.00000000E+00
  0.00000000E+00  0.00000000E+00  0.00000000E+00
  0.00000000E+00  0.00000000E+00  0.00000000E+00
  0.00000000E+00  0.00000000E+00  0.00000000E+00
  0.00000000E+00  0.00000000E+00  0.00000000E+00
  0.00000000E+00  0.00000000E+00  0.00000000E+00
  0.00000000E+00  0.00000000E+00  0.00000000E+00
  0.00000000E+00  0.00000000E+00  0.00000000E+00
  0.00000000E+00  0.00000000E+00  0.00000000E+00
  0.00000000E+00  0.00000000E+00  0.00000000E+00
  0.00000000E+00  0.00000000E+00  0.00000000E+00
  0.00000000E+00  0.00000000E+00  0.00000000E+00
  0.00000000E+00  0.00000000E+00  0.00000000E+00
  0.00000000E+00  0.00000000E+00  0.00000000E+00
  0.00000000E+00  0.00000000E+00  0.00000000E+00
  0.00000000E+00  0.00000000E+00  0.00000000E+00
  0.00000000E+00  0.00000000E+00  0.00000000E+00
  0.00000000E+00  0.00000000E+00  0.00000000E+00
  0.00000000E+00  0.00000000E+00  0.00000000E+00
  0.00000000E+00  0.00000000E+00  0.00000000E+00
  0.00000000E+00  0.00000000E+00  0.00000000E+00
  0.00000000E+00  0.00000000E+00  0.00000000E+00
  0.00000000E+00  0.00000000E+00  0.00000000E+00
  0.00000000E+00  0.00000000E+00  0.00000000E+00
  0.00000000E+00  0.00000000E+00  0.00000000E+00
  0.00000000E+00  0.00000000E+00  0.00000000E+00
  0.00000000E+00  0.00000000E+00  0.00000000E+00
  0.00000000E+00  0.00000000E+00  0.00000000E+00
  0.00000000E+00  0.00000000E+00  0.00000000E+00
  0.00000000E+00  0.00000000E+00  0.00000000E+00
  0.00000000E+00  0.00000000E+00  0.00000000E+00
  0.00000000E+00  0.00000000E+00  0.00000000E+00
  0.00000000E+00  0.00000000E+00  0.00000000E+00
  0.00000000E+00  0.00000000E+00  0.00000000E+00
  0.00000000E+00  0.00000000E+00  0.00000000E+00
  0.00000000E+00  0.00000000E+00  0.00000000E+00
  0.00000000E+00  0.00000000E+00  0.00000000E+00
  0.00000000E+00  0.00000000E+00  0.00000000E+00
  0.00000000E+00  0.00000000E+00  0.00000000E+00
  0.00000000E+00  0.00000000E+00  0.00000000E+00
  0.00000000E+00  0.00000000E+00  0.00000000E+00
  0.00000000E+00  0.00000000E+00  0.00000000E+00
  0.00000000E+00  0.00000000E+00  0.00000000E+00
  0.00000000E+00  0.00000000E+00  0.00000000E+00
  0.00000000E+00  0.00000000E+00  0.00000000E+00
