generated by phonopy                    
   1.01332239234878     
    44.3063972699212343    0.0000000000000000   -0.0000000000000000
    -0.0000000000000000    5.1745870314242159    0.0000000000000000
     0.0000000000000000   -2.5872935157121084    4.4813238233068846
   Co   Ru
    64    24
Direct
  0.0274224144917581  0.3333333333333286  0.1666666666666714
  0.0274224144917581  0.3333333333333286  0.6666666666666714
  0.0274224144917581  0.8333333333333286  0.1666666666666714
  0.0274224144917581  0.8333333333333286  0.6666666666666714
  0.0713893537356332  0.1666666666666714  0.3333333333333286
  0.0713893537356332  0.1666666666666714  0.8333333333333286
  0.0713893537356332  0.6666666666666714  0.3333333333333286
  0.0713893537356332  0.6666666666666714  0.8333333333333286
  0.1155755862931069  0.3333333333333286  0.1666666666666714
  0.1155755862931069  0.3333333333333286  0.6666666666666714
  0.1155755862931069  0.8333333333333286  0.1666666666666714
  0.1155755862931069  0.8333333333333286  0.6666666666666714
  0.1597441903710158  0.1666666666666714  0.3333333333333286
  0.1597441903710158  0.1666666666666714  0.8333333333333286
  0.1597441903710158  0.6666666666666714  0.3333333333333286
  0.1597441903710158  0.6666666666666714  0.8333333333333286
  0.2039030549974566  0.3333333333333286  0.1666666666666714
  0.2039030549974566  0.3333333333333286  0.6666666666666714
  0.2039030549974566  0.8333333333333286  0.1666666666666714
  0.2039030549974566  0.8333333333333286  0.6666666666666714
  0.2480639680027566  0.1666666666666714  0.3333333333333286
  0.2480639680027566  0.1666666666666714  0.8333333333333286
  0.2480639680027566  0.6666666666666714  0.3333333333333286
  0.2480639680027566  0.6666666666666714  0.8333333333333286
  0.2922465150013370  0.3333333333333286  0.1666666666666714
  0.2922465150013370  0.3333333333333286  0.6666666666666714
  0.2922465150013370  0.8333333333333286  0.1666666666666714
  0.2922465150013370  0.8333333333333286  0.6666666666666714
  0.3362110341424209  0.1666666666666714  0.3333333333333286
  0.3362110341424209  0.1666666666666714  0.8333333333333286
  0.3362110341424209  0.6666666666666714  0.3333333333333286
  0.3362110341424209  0.6666666666666714  0.8333333333333286
  0.5274224144917579  0.1666666666666714  0.3333333333333286
  0.5274224144917579  0.1666666666666714  0.8333333333333286
  0.5274224144917579  0.6666666666666714  0.3333333333333286
  0.5274224144917579  0.6666666666666714  0.8333333333333286
  0.5713893537356328  0.3333333333333286  0.1666666666666714
  0.5713893537356328  0.3333333333333286  0.6666666666666714
  0.5713893537356328  0.8333333333333286  0.1666666666666714
  0.5713893537356328  0.8333333333333286  0.6666666666666714
  0.6155755862931066  0.1666666666666714  0.3333333333333286
  0.6155755862931066  0.1666666666666714  0.8333333333333286
  0.6155755862931066  0.6666666666666714  0.3333333333333286
  0.6155755862931066  0.6666666666666714  0.8333333333333286
  0.6597441903710162  0.3333333333333286  0.1666666666666714
  0.6597441903710162  0.3333333333333286  0.6666666666666714
  0.6597441903710162  0.8333333333333286  0.1666666666666714
  0.6597441903710162  0.8333333333333286  0.6666666666666714
  0.7039030549974569  0.1666666666666714  0.3333333333333286
  0.7039030549974569  0.1666666666666714  0.8333333333333286
  0.7039030549974569  0.6666666666666714  0.3333333333333286
  0.7039030549974569  0.6666666666666714  0.8333333333333286
  0.7480639680027565  0.3333333333333286  0.1666666666666714
  0.7480639680027565  0.3333333333333286  0.6666666666666714
  0.7480639680027565  0.8333333333333286  0.1666666666666714
  0.7480639680027565  0.8333333333333286  0.6666666666666714
  0.7922465150013441  0.1666666666666714  0.3333333333333286
  0.7922465150013441  0.1666666666666714  0.8333333333333286
  0.7922465150013441  0.6666666666666714  0.3333333333333286
  0.7922465150013441  0.6666666666666714  0.8333333333333286
  0.8362110341424276  0.3333333333333286  0.1666666666666714
  0.8362110341424276  0.3333333333333286  0.6666666666666714
  0.8362110341424276  0.8333333333333286  0.1666666666666714
  0.8362110341424276  0.8333333333333286  0.6666666666666714
  0.3833690615114476  0.3333333333333286  0.1666666666666714
  0.3833690615114476  0.3333333333333286  0.6666666666666714
  0.3833690615114476  0.8333333333333286  0.1666666666666714
  0.3833690615114476  0.8333333333333286  0.6666666666666714
  0.4318144074299166  0.1666666666666714  0.3333333333333286
  0.4318144074299166  0.1666666666666714  0.8333333333333286
  0.4318144074299166  0.6666666666666714  0.3333333333333286
  0.4318144074299166  0.6666666666666714  0.8333333333333286
  0.4802604140231867  0.3333333333333286  0.1666666666666714
  0.4802604140231867  0.3333333333333286  0.6666666666666714
  0.4802604140231867  0.8333333333333286  0.1666666666666714
  0.4802604140231867  0.8333333333333286  0.6666666666666714
  0.8833690615114480  0.1666666666666714  0.3333333333333286
  0.8833690615114480  0.1666666666666714  0.8333333333333286
  0.8833690615114480  0.6666666666666714  0.3333333333333286
  0.8833690615114480  0.6666666666666714  0.8333333333333286
  0.9318144074299165  0.3333333333333286  0.1666666666666714
  0.9318144074299165  0.3333333333333286  0.6666666666666714
  0.9318144074299165  0.8333333333333286  0.1666666666666714
  0.9318144074299165  0.8333333333333286  0.6666666666666714
  0.9802604140231796  0.1666666666666714  0.3333333333333286
  0.9802604140231796  0.1666666666666714  0.8333333333333286
  0.9802604140231796  0.6666666666666714  0.3333333333333286
  0.9802604140231796  0.6666666666666714  0.8333333333333286
 
  0.00000000E+00  0.00000000E+00  0.00000000E+00
  0.00000000E+00  0.00000000E+00  0.00000000E+00
  0.00000000E+00  0.00000000E+00  0.00000000E+00
  0.00000000E+00  0.00000000E+00  0.00000000E+00
  0.00000000E+00  0.00000000E+00  0.00000000E+00
  0.00000000E+00  0.00000000E+00  0.00000000E+00
  0.00000000E+00  0.00000000E+00  0.00000000E+00
  0.00000000E+00  0.00000000E+00  0.00000000E+00
  0.00000000E+00  0.00000000E+00  0.00000000E+00
  0.00000000E+00  0.00000000E+00  0.00000000E+00
  0.00000000E+00  0.00000000E+00  0.00000000E+00
  0.00000000E+00  0.00000000E+00  0.00000000E+00
  0.00000000E+00  0.00000000E+00  0.00000000E+00
  0.00000000E+00  0.00000000E+00  0.00000000E+00
  0.00000000E+00  0.00000000E+00  0.00000000E+00
  0.00000000E+00  0.00000000E+00  0.00000000E+00
  0.00000000E+00  0.00000000E+00  0.00000000E+00
  0.00000000E+00  0.00000000E+00  0.00000000E+00
  0.00000000E+00  0.00000000E+00  0.00000000E+00
  0.00000000E+00  0.00000000E+00  0.00000000E+00
  0.00000000E+00  0.00000000E+00  0.00000000E+00
  0.00000000E+00  0.00000000E+00  0.00000000E+00
  0.00000000E+00  0.00000000E+00  0.00000000E+00
  0.00000000E+00  0.00000000E+00  0.00000000E+00
  0.00000000E+00  0.00000000E+00  0.00000000E+00
  0.00000000E+00  0.00000000E+00  0.00000000E+00
  0.00000000E+00  0.00000000E+00  0.00000000E+00
  0.00000000E+00  0.00000000E+00  0.00000000E+00
  0.00000000E+00  0.00000000E+00  0.00000000E+00
  0.00000000E+00  0.00000000E+00  0.00000000E+00
  0.00000000E+00  0.00000000E+00  0.00000000E+00
  0.00000000E+00  0.00000000E+00  0.00000000E+00
  0.00000000E+00  0.00000000E+00  0.00000000E+00
  0.00000000E+00  0.00000000E+00  0.00000000E+00
  0.00000000E+00  0.00000000E+00  0.00000000E+00
  0.00000000E+00  0.00000000E+00  0.00000000E+00
  0.00000000E+00  0.00000000E+00  0.00000000E+00
  0.00000000E+00  0.00000000E+00  0.00000000E+00
  0.00000000E+00  0.00000000E+00  0.00000000E+00
  0.00000000E+00  0.00000000E+00  0.00000000E+00
  0.00000000E+00  0.00000000E+00  0.00000000E+00
  0.00000000E+00  0.00000000E+00  0.00000000E+00
  0.00000000E+00  0.00000000E+00  0.00000000E+00
  0.00000000E+00  0.00000000E+00  0.00000000E+00
  0.00000000E+00  0.00000000E+00  0.00000000E+00
  0.00000000E+00  0.00000000E+00  0.00000000E+00
  0.00000000E+00  0.00000000E+00  0.00000000E+00
  0.00000000E+00  0.00000000E+00  0.00000000E+00
  0.00000000E+00  0.00000000E+00  0.00000000E+00
  0.00000000E+00  0.00000000E+00  0.00000000E+00
  0.00000000E+00  0.00000000E+00  0.00000000E+00
  0.00000000E+00  0.00000000E+00  0.00000000E+00
  0.00000000E+00  0.00000000E+00  0.00000000E+00
  0.00000000E+00  0.00000000E+00  0.00000000E+00
  0.00000000E+00  0.00000000E+00  0.00000000E+00
  0.00000000E+00  0.00000000E+00  0.00000000E+00
  0.00000000E+00  0.00000000E+00  0.00000000E+00
  0.00000000E+00  0.00000000E+00  0.00000000E+00
  0.00000000E+00  0.00000000E+00  0.00000000E+00
  0.00000000E+00  0.00000000E+00  0.00000000E+00
  0.00000000E+00  0.00000000E+00  0.00000000E+00
  0.00000000E+00  0.00000000E+00  0.00000000E+00
  0.00000000E+00  0.00000000E+00  0.00000000E+00
  0.00000000E+00  0.00000000E+00  0.00000000E+00
  0.00000000E+00  0.00000000E+00  0.00000000E+00
  0.00000000E+00  0.00000000E+00  0.00000000E+00
  0.00000000E+00  0.00000000E+00  0.00000000E+00
  0.00000000E+00  0.00000000E+00  0.00000000E+00
  0.00000000E+00  0.00000000E+00  0.00000000E+00
  0.00000000E+00  0.00000000E+00  0.00000000E+00
  0.00000000E+00  0.00000000E+00  0.00000000E+00
  0.00000000E+00  0.00000000E+00  0.00000000E+00
  0.00000000E+00  0.00000000E+00  0.00000000E+00
  0.00000000E+00  0.00000000E+00  0.00000000E+00
  0.00000000E+00  0.00000000E+00  0.00000000E+00
  0.00000000E+00  0.00000000E+00  0.00000000E+00
  0.00000000E+00  0.00000000E+00  0.00000000E+00
  0.00000000E+00  0.00000000E+00  0.00000000E+00
  0.00000000E+00  0.00000000E+00  0.00000000E+00
  0.00000000E+00  0.00000000E+00  0.00000000E+00
  0.00000000E+00  0.00000000E+00  0.00000000E+00
  0.00000000E+00  0.00000000E+00  0.00000000E+00
  0.00000000E+00  0.00000000E+00  0.00000000E+00
  0.00000000E+00  0.00000000E+00  0.00000000E+00
  0.00000000E+00  0.00000000E+00  0.00000000E+00
  0.00000000E+00  0.00000000E+00  0.00000000E+00
  0.00000000E+00  0.00000000E+00  0.00000000E+00
  0.00000000E+00  0.00000000E+00  0.00000000E+00
