generated by phonopy                    
   0.9932883883792688     
    32.2567900176210500    0.0000000000000000    0.0000000000000000
     0.0000000000000000    5.0968190593444902    0.0000000000000000
    -0.0000000000000000   -2.5484095296722451    4.4139747838850365
   Co   Ru
    56     8
Direct
  0.0339733049493560  0.3333333333333286  0.1666666666666714
  0.0339733049493560  0.3333333333333286  0.6666666666666714
  0.0339733049493560  0.8333333333333286  0.1666666666666714
  0.0339733049493560  0.8333333333333286  0.6666666666666714
  0.0953533017025805  0.1666666666666714  0.3333333333333286
  0.0953533017025805  0.1666666666666714  0.8333333333333286
  0.0953533017025805  0.6666666666666714  0.3333333333333286
  0.0953533017025805  0.6666666666666714  0.8333333333333286
  0.1570181025967514  0.3333333333333286  0.1666666666666714
  0.1570181025967514  0.3333333333333286  0.6666666666666714
  0.1570181025967514  0.8333333333333286  0.1666666666666714
  0.1570181025967514  0.8333333333333286  0.6666666666666714
  0.2187500000000000  0.1666666666666714  0.3333333333333286
  0.2187500000000000  0.1666666666666714  0.8333333333333286
  0.2187500000000000  0.6666666666666714  0.3333333333333286
  0.2187500000000000  0.6666666666666714  0.8333333333333286
  0.2804818974032486  0.3333333333333286  0.1666666666666714
  0.2804818974032486  0.3333333333333286  0.6666666666666714
  0.2804818974032486  0.8333333333333286  0.1666666666666714
  0.2804818974032486  0.8333333333333286  0.6666666666666714
  0.3421466982974195  0.1666666666666714  0.3333333333333286
  0.3421466982974195  0.1666666666666714  0.8333333333333286
  0.3421466982974195  0.6666666666666714  0.3333333333333286
  0.3421466982974195  0.6666666666666714  0.8333333333333286
  0.4035266950506440  0.3333333333333286  0.1666666666666714
  0.4035266950506440  0.3333333333333286  0.6666666666666714
  0.4035266950506440  0.8333333333333286  0.1666666666666714
  0.4035266950506440  0.8333333333333286  0.6666666666666714
  0.5339733049493560  0.3333333333333286  0.1666666666666714
  0.5339733049493560  0.3333333333333286  0.6666666666666714
  0.5339733049493560  0.8333333333333286  0.1666666666666714
  0.5339733049493560  0.8333333333333286  0.6666666666666714
  0.5953533017025805  0.1666666666666714  0.3333333333333286
  0.5953533017025805  0.1666666666666714  0.8333333333333286
  0.5953533017025805  0.6666666666666714  0.3333333333333286
  0.5953533017025805  0.6666666666666714  0.8333333333333286
  0.6570181025967514  0.3333333333333286  0.1666666666666714
  0.6570181025967514  0.3333333333333286  0.6666666666666714
  0.6570181025967514  0.8333333333333286  0.1666666666666714
  0.6570181025967514  0.8333333333333286  0.6666666666666714
  0.7187500000000000  0.1666666666666714  0.3333333333333286
  0.7187500000000000  0.1666666666666714  0.8333333333333286
  0.7187500000000000  0.6666666666666714  0.3333333333333286
  0.7187500000000000  0.6666666666666714  0.8333333333333286
  0.7804818974032486  0.3333333333333286  0.1666666666666714
  0.7804818974032486  0.3333333333333286  0.6666666666666714
  0.7804818974032486  0.8333333333333286  0.1666666666666714
  0.7804818974032486  0.8333333333333286  0.6666666666666714
  0.8421466982974195  0.1666666666666714  0.3333333333333286
  0.8421466982974195  0.1666666666666714  0.8333333333333286
  0.8421466982974195  0.6666666666666714  0.3333333333333286
  0.8421466982974195  0.6666666666666714  0.8333333333333286
  0.9035266950506440  0.3333333333333286  0.1666666666666714
  0.9035266950506440  0.3333333333333286  0.6666666666666714
  0.9035266950506440  0.8333333333333286  0.1666666666666714
  0.9035266950506440  0.8333333333333286  0.6666666666666714
  0.4687500000000000  0.1666666666666714  0.3333333333333286
  0.4687500000000000  0.1666666666666714  0.8333333333333286
  0.4687500000000000  0.6666666666666714  0.3333333333333286
  0.4687500000000000  0.6666666666666714  0.8333333333333286
  0.9687500000000000  0.1666666666666714  0.3333333333333286
  0.9687500000000000  0.1666666666666714  0.8333333333333286
  0.9687500000000000  0.6666666666666714  0.3333333333333286
  0.9687500000000000  0.6666666666666714  0.8333333333333286
 
  0.00000000E+00  0.00000000E+00  0.00000000E+00
  0.00000000E+00  0.00000000E+00  0.00000000E+00
  0.00000000E+00  0.00000000E+00  0.00000000E+00
  0.00000000E+00  0.00000000E+00  0.00000000E+00
  0.00000000E+00  0.00000000E+00  0.00000000E+00
  0.00000000E+00  0.00000000E+00  0.00000000E+00
  0.00000000E+00  0.00000000E+00  0.00000000E+00
  0.00000000E+00  0.00000000E+00  0.00000000E+00
  0.00000000E+00  0.00000000E+00  0.00000000E+00
  0.00000000E+00  0.00000000E+00  0.00000000E+00
  0.00000000E+00  0.00000000E+00  0.00000000E+00
  0.00000000E+00  0.00000000E+00  0.00000000E+00
  0.00000000E+00  0.00000000E+00  0.00000000E+00
  0.00000000E+00  0.00000000E+00  0.00000000E+00
  0.00000000E+00  0.00000000E+00  0.00000000E+00
  0.00000000E+00  0.00000000E+00  0.00000000E+00
  0.00000000E+00  0.00000000E+00  0.00000000E+00
  0.00000000E+00  0.00000000E+00  0.00000000E+00
  0.00000000E+00  0.00000000E+00  0.00000000E+00
  0.00000000E+00  0.00000000E+00  0.00000000E+00
  0.00000000E+00  0.00000000E+00  0.00000000E+00
  0.00000000E+00  0.00000000E+00  0.00000000E+00
  0.00000000E+00  0.00000000E+00  0.00000000E+00
  0.00000000E+00  0.00000000E+00  0.00000000E+00
  0.00000000E+00  0.00000000E+00  0.00000000E+00
  0.00000000E+00  0.00000000E+00  0.00000000E+00
  0.00000000E+00  0.00000000E+00  0.00000000E+00
  0.00000000E+00  0.00000000E+00  0.00000000E+00
  0.00000000E+00  0.00000000E+00  0.00000000E+00
  0.00000000E+00  0.00000000E+00  0.00000000E+00
  0.00000000E+00  0.00000000E+00  0.00000000E+00
  0.00000000E+00  0.00000000E+00  0.00000000E+00
  0.00000000E+00  0.00000000E+00  0.00000000E+00
  0.00000000E+00  0.00000000E+00  0.00000000E+00
  0.00000000E+00  0.00000000E+00  0.00000000E+00
  0.00000000E+00  0.00000000E+00  0.00000000E+00
  0.00000000E+00  0.00000000E+00  0.00000000E+00
  0.00000000E+00  0.00000000E+00  0.00000000E+00
  0.00000000E+00  0.00000000E+00  0.00000000E+00
  0.00000000E+00  0.00000000E+00  0.00000000E+00
  0.00000000E+00  0.00000000E+00  0.00000000E+00
  0.00000000E+00  0.00000000E+00  0.00000000E+00
  0.00000000E+00  0.00000000E+00  0.00000000E+00
  0.00000000E+00  0.00000000E+00  0.00000000E+00
  0.00000000E+00  0.00000000E+00  0.00000000E+00
  0.00000000E+00  0.00000000E+00  0.00000000E+00
  0.00000000E+00  0.00000000E+00  0.00000000E+00
  0.00000000E+00  0.00000000E+00  0.00000000E+00
  0.00000000E+00  0.00000000E+00  0.00000000E+00
  0.00000000E+00  0.00000000E+00  0.00000000E+00
  0.00000000E+00  0.00000000E+00  0.00000000E+00
  0.00000000E+00  0.00000000E+00  0.00000000E+00
  0.00000000E+00  0.00000000E+00  0.00000000E+00
  0.00000000E+00  0.00000000E+00  0.00000000E+00
  0.00000000E+00  0.00000000E+00  0.00000000E+00
  0.00000000E+00  0.00000000E+00  0.00000000E+00
  0.00000000E+00  0.00000000E+00  0.00000000E+00
  0.00000000E+00  0.00000000E+00  0.00000000E+00
  0.00000000E+00  0.00000000E+00  0.00000000E+00
  0.00000000E+00  0.00000000E+00  0.00000000E+00
  0.00000000E+00  0.00000000E+00  0.00000000E+00
  0.00000000E+00  0.00000000E+00  0.00000000E+00
  0.00000000E+00  0.00000000E+00  0.00000000E+00
  0.00000000E+00  0.00000000E+00  0.00000000E+00
