generated by phonopy                    
    1.011339827785873     
    51.8443810121037174   -0.0000000000000000   -0.0000000000000000
     0.0000000000000000    4.9988090277000605    0.0000000000000001
    -0.0000000000000000   -2.4994045138500285    4.3290956066552484
   Co   Ru
    96     8
Direct
  0.0211594190982437  0.3333333333333286  0.1666666666666714
  0.0211594190982437  0.3333333333333286  0.6666666666666714
  0.0211594190982437  0.8333333333333286  0.1666666666666714
  0.0211594190982437  0.8333333333333286  0.6666666666666714
  0.0591063170662520  0.1666666666666714  0.3333333333333286
  0.0591063170662520  0.1666666666666714  0.8333333333333286
  0.0591063170662520  0.6666666666666714  0.3333333333333286
  0.0591063170662520  0.6666666666666714  0.8333333333333286
  0.0972244147444564  0.3333333333333286  0.1666666666666714
  0.0972244147444564  0.3333333333333286  0.6666666666666714
  0.0972244147444564  0.8333333333333286  0.1666666666666714
  0.0972244147444564  0.8333333333333286  0.6666666666666714
  0.1353897479481700  0.1666666666666714  0.3333333333333286
  0.1353897479481700  0.1666666666666714  0.8333333333333286
  0.1353897479481700  0.6666666666666714  0.3333333333333286
  0.1353897479481700  0.6666666666666714  0.8333333333333286
  0.1735356994088906  0.3333333333333286  0.1666666666666714
  0.1735356994088906  0.3333333333333286  0.6666666666666714
  0.1735356994088906  0.8333333333333286  0.1666666666666714
  0.1735356994088906  0.8333333333333286  0.6666666666666714
  0.2117067272057568  0.1666666666666714  0.3333333333333286
  0.2117067272057568  0.1666666666666714  0.8333333333333286
  0.2117067272057568  0.6666666666666714  0.3333333333333286
  0.2117067272057568  0.6666666666666714  0.8333333333333286
  0.2498317343327031  0.3333333333333286  0.1666666666666714
  0.2498317343327031  0.3333333333333286  0.6666666666666714
  0.2498317343327031  0.8333333333333286  0.1666666666666714
  0.2498317343327031  0.8333333333333286  0.6666666666666714
  0.2880027621295693  0.1666666666666714  0.3333333333333286
  0.2880027621295693  0.1666666666666714  0.8333333333333286
  0.2880027621295693  0.6666666666666714  0.3333333333333286
  0.2880027621295693  0.6666666666666714  0.8333333333333286
  0.3261487135902899  0.3333333333333286  0.1666666666666714
  0.3261487135902899  0.3333333333333286  0.6666666666666714
  0.3261487135902899  0.8333333333333286  0.1666666666666714
  0.3261487135902899  0.8333333333333286  0.6666666666666714
  0.3643140467940106  0.1666666666666714  0.3333333333333286
  0.3643140467940106  0.1666666666666714  0.8333333333333286
  0.3643140467940106  0.6666666666666714  0.3333333333333286
  0.3643140467940106  0.6666666666666714  0.8333333333333286
  0.4024321444722079  0.3333333333333286  0.1666666666666714
  0.4024321444722079  0.3333333333333286  0.6666666666666714
  0.4024321444722079  0.8333333333333286  0.1666666666666714
  0.4024321444722079  0.8333333333333286  0.6666666666666714
  0.4403790424402162  0.1666666666666714  0.3333333333333286
  0.4403790424402162  0.1666666666666714  0.8333333333333286
  0.4403790424402162  0.6666666666666714  0.3333333333333286
  0.4403790424402162  0.6666666666666714  0.8333333333333286
  0.5211594190982437  0.1666666666666714  0.3333333333333286
  0.5211594190982437  0.1666666666666714  0.8333333333333286
  0.5211594190982437  0.6666666666666714  0.3333333333333286
  0.5211594190982437  0.6666666666666714  0.8333333333333286
  0.5591063170662521  0.3333333333333286  0.1666666666666714
  0.5591063170662521  0.3333333333333286  0.6666666666666714
  0.5591063170662521  0.8333333333333286  0.1666666666666714
  0.5591063170662521  0.8333333333333286  0.6666666666666714
  0.5972244147444492  0.1666666666666714  0.3333333333333286
  0.5972244147444492  0.1666666666666714  0.8333333333333286
  0.5972244147444492  0.6666666666666714  0.3333333333333286
  0.5972244147444492  0.6666666666666714  0.8333333333333286
  0.6353897479481700  0.3333333333333286  0.1666666666666714
  0.6353897479481700  0.3333333333333286  0.6666666666666714
  0.6353897479481700  0.8333333333333286  0.1666666666666714
  0.6353897479481700  0.8333333333333286  0.6666666666666714
  0.6735356994088906  0.1666666666666714  0.3333333333333286
  0.6735356994088906  0.1666666666666714  0.8333333333333286
  0.6735356994088906  0.6666666666666714  0.3333333333333286
  0.6735356994088906  0.6666666666666714  0.8333333333333286
  0.7117067272057569  0.3333333333333286  0.1666666666666714
  0.7117067272057569  0.3333333333333286  0.6666666666666714
  0.7117067272057569  0.8333333333333286  0.1666666666666714
  0.7117067272057569  0.8333333333333286  0.6666666666666714
  0.7498317343327030  0.1666666666666714  0.3333333333333286
  0.7498317343327030  0.1666666666666714  0.8333333333333286
  0.7498317343327030  0.6666666666666714  0.3333333333333286
  0.7498317343327030  0.6666666666666714  0.8333333333333286
  0.7880027621295693  0.3333333333333286  0.1666666666666714
  0.7880027621295693  0.3333333333333286  0.6666666666666714
  0.7880027621295693  0.8333333333333286  0.1666666666666714
  0.7880027621295693  0.8333333333333286  0.6666666666666714
  0.8261487135902970  0.1666666666666714  0.3333333333333286
  0.8261487135902970  0.1666666666666714  0.8333333333333286
  0.8261487135902970  0.6666666666666714  0.3333333333333286
  0.8261487135902970  0.6666666666666714  0.8333333333333286
  0.8643140467940107  0.3333333333333286  0.1666666666666714
  0.8643140467940107  0.3333333333333286  0.6666666666666714
  0.8643140467940107  0.8333333333333286  0.1666666666666714
  0.8643140467940107  0.8333333333333286  0.6666666666666714
  0.9024321444722078  0.1666666666666714  0.3333333333333286
  0.9024321444722078  0.1666666666666714  0.8333333333333286
  0.9024321444722078  0.6666666666666714  0.3333333333333286
  0.9024321444722078  0.6666666666666714  0.8333333333333286
  0.9403790424402162  0.3333333333333286  0.1666666666666714
  0.9403790424402162  0.3333333333333286  0.6666666666666714
  0.9403790424402162  0.8333333333333286  0.1666666666666714
  0.9403790424402162  0.8333333333333286  0.6666666666666714
  0.4807692307692335  0.3333333333333286  0.1666666666666714
  0.4807692307692335  0.3333333333333286  0.6666666666666714
  0.4807692307692335  0.8333333333333286  0.1666666666666714
  0.4807692307692335  0.8333333333333286  0.6666666666666714
  0.9807692307692335  0.1666666666666714  0.3333333333333286
  0.9807692307692335  0.1666666666666714  0.8333333333333286
  0.9807692307692335  0.6666666666666714  0.3333333333333286
  0.9807692307692335  0.6666666666666714  0.8333333333333286
 
  0.00000000E+00  0.00000000E+00  0.00000000E+00
  0.00000000E+00  0.00000000E+00  0.00000000E+00
  0.00000000E+00  0.00000000E+00  0.00000000E+00
  0.00000000E+00  0.00000000E+00  0.00000000E+00
  0.00000000E+00  0.00000000E+00  0.00000000E+00
  0.00000000E+00  0.00000000E+00  0.00000000E+00
  0.00000000E+00  0.00000000E+00  0.00000000E+00
  0.00000000E+00  0.00000000E+00  0.00000000E+00
  0.00000000E+00  0.00000000E+00  0.00000000E+00
  0.00000000E+00  0.00000000E+00  0.00000000E+00
  0.00000000E+00  0.00000000E+00  0.00000000E+00
  0.00000000E+00  0.00000000E+00  0.00000000E+00
  0.00000000E+00  0.00000000E+00  0.00000000E+00
  0.00000000E+00  0.00000000E+00  0.00000000E+00
  0.00000000E+00  0.00000000E+00  0.00000000E+00
  0.00000000E+00  0.00000000E+00  0.00000000E+00
  0.00000000E+00  0.00000000E+00  0.00000000E+00
  0.00000000E+00  0.00000000E+00  0.00000000E+00
  0.00000000E+00  0.00000000E+00  0.00000000E+00
  0.00000000E+00  0.00000000E+00  0.00000000E+00
  0.00000000E+00  0.00000000E+00  0.00000000E+00
  0.00000000E+00  0.00000000E+00  0.00000000E+00
  0.00000000E+00  0.00000000E+00  0.00000000E+00
  0.00000000E+00  0.00000000E+00  0.00000000E+00
  0.00000000E+00  0.00000000E+00  0.00000000E+00
  0.00000000E+00  0.00000000E+00  0.00000000E+00
  0.00000000E+00  0.00000000E+00  0.00000000E+00
  0.00000000E+00  0.00000000E+00  0.00000000E+00
  0.00000000E+00  0.00000000E+00  0.00000000E+00
  0.00000000E+00  0.00000000E+00  0.00000000E+00
  0.00000000E+00  0.00000000E+00  0.00000000E+00
  0.00000000E+00  0.00000000E+00  0.00000000E+00
  0.00000000E+00  0.00000000E+00  0.00000000E+00
  0.00000000E+00  0.00000000E+00  0.00000000E+00
  0.00000000E+00  0.00000000E+00  0.00000000E+00
  0.00000000E+00  0.00000000E+00  0.00000000E+00
  0.00000000E+00  0.00000000E+00  0.00000000E+00
  0.00000000E+00  0.00000000E+00  0.00000000E+00
  0.00000000E+00  0.00000000E+00  0.00000000E+00
  0.00000000E+00  0.00000000E+00  0.00000000E+00
  0.00000000E+00  0.00000000E+00  0.00000000E+00
  0.00000000E+00  0.00000000E+00  0.00000000E+00
  0.00000000E+00  0.00000000E+00  0.00000000E+00
  0.00000000E+00  0.00000000E+00  0.00000000E+00
  0.00000000E+00  0.00000000E+00  0.00000000E+00
  0.00000000E+00  0.00000000E+00  0.00000000E+00
  0.00000000E+00  0.00000000E+00  0.00000000E+00
  0.00000000E+00  0.00000000E+00  0.00000000E+00
  0.00000000E+00  0.00000000E+00  0.00000000E+00
  0.00000000E+00  0.00000000E+00  0.00000000E+00
  0.00000000E+00  0.00000000E+00  0.00000000E+00
  0.00000000E+00  0.00000000E+00  0.00000000E+00
  0.00000000E+00  0.00000000E+00  0.00000000E+00
  0.00000000E+00  0.00000000E+00  0.00000000E+00
  0.00000000E+00  0.00000000E+00  0.00000000E+00
  0.00000000E+00  0.00000000E+00  0.00000000E+00
  0.00000000E+00  0.00000000E+00  0.00000000E+00
  0.00000000E+00  0.00000000E+00  0.00000000E+00
  0.00000000E+00  0.00000000E+00  0.00000000E+00
  0.00000000E+00  0.00000000E+00  0.00000000E+00
  0.00000000E+00  0.00000000E+00  0.00000000E+00
  0.00000000E+00  0.00000000E+00  0.00000000E+00
  0.00000000E+00  0.00000000E+00  0.00000000E+00
  0.00000000E+00  0.00000000E+00  0.00000000E+00
  0.00000000E+00  0.00000000E+00  0.00000000E+00
  0.00000000E+00  0.00000000E+00  0.00000000E+00
  0.00000000E+00  0.00000000E+00  0.00000000E+00
  0.00000000E+00  0.00000000E+00  0.00000000E+00
  0.00000000E+00  0.00000000E+00  0.00000000E+00
  0.00000000E+00  0.00000000E+00  0.00000000E+00
  0.00000000E+00  0.00000000E+00  0.00000000E+00
  0.00000000E+00  0.00000000E+00  0.00000000E+00
  0.00000000E+00  0.00000000E+00  0.00000000E+00
  0.00000000E+00  0.00000000E+00  0.00000000E+00
  0.00000000E+00  0.00000000E+00  0.00000000E+00
  0.00000000E+00  0.00000000E+00  0.00000000E+00
  0.00000000E+00  0.00000000E+00  0.00000000E+00
  0.00000000E+00  0.00000000E+00  0.00000000E+00
  0.00000000E+00  0.00000000E+00  0.00000000E+00
  0.00000000E+00  0.00000000E+00  0.00000000E+00
  0.00000000E+00  0.00000000E+00  0.00000000E+00
  0.00000000E+00  0.00000000E+00  0.00000000E+00
  0.00000000E+00  0.00000000E+00  0.00000000E+00
  0.00000000E+00  0.00000000E+00  0.00000000E+00
  0.00000000E+00  0.00000000E+00  0.00000000E+00
  0.00000000E+00  0.00000000E+00  0.00000000E+00
  0.00000000E+00  0.00000000E+00  0.00000000E+00
  0.00000000E+00  0.00000000E+00  0.00000000E+00
  0.00000000E+00  0.00000000E+00  0.00000000E+00
  0.00000000E+00  0.00000000E+00  0.00000000E+00
  0.00000000E+00  0.00000000E+00  0.00000000E+00
  0.00000000E+00  0.00000000E+00  0.00000000E+00
  0.00000000E+00  0.00000000E+00  0.00000000E+00
  0.00000000E+00  0.00000000E+00  0.00000000E+00
  0.00000000E+00  0.00000000E+00  0.00000000E+00
  0.00000000E+00  0.00000000E+00  0.00000000E+00
  0.00000000E+00  0.00000000E+00  0.00000000E+00
  0.00000000E+00  0.00000000E+00  0.00000000E+00
  0.00000000E+00  0.00000000E+00  0.00000000E+00
  0.00000000E+00  0.00000000E+00  0.00000000E+00
  0.00000000E+00  0.00000000E+00  0.00000000E+00
  0.00000000E+00  0.00000000E+00  0.00000000E+00
  0.00000000E+00  0.00000000E+00  0.00000000E+00
  0.00000000E+00  0.00000000E+00  0.00000000E+00
