generated by phonopy                    
    1.004552107645197     
    51.8413791178132328    0.0000000000000000   -0.0000000000000000
     0.0000000000000000    4.9989537545506053    0.0000000000000001
    -0.0000000000000000   -2.4994768772753009    4.3292209437844313
   Co   Ru
    96     8
Direct
  0.0212026960628411  0.3333333333333286  0.1666666666666714
  0.0212026960628411  0.3333333333333286  0.6666666666666714
  0.0212026960628411  0.8333333333333286  0.1666666666666714
  0.0212026960628411  0.8333333333333286  0.6666666666666714
  0.0591124900969260  0.1666666666666714  0.3333333333333286
  0.0591124900969260  0.1666666666666714  0.8333333333333286
  0.0591124900969260  0.6666666666666714  0.3333333333333286
  0.0591124900969260  0.6666666666666714  0.8333333333333286
  0.0972126241174169  0.3333333333333286  0.1666666666666714
  0.0972126241174169  0.3333333333333286  0.6666666666666714
  0.0972126241174169  0.8333333333333286  0.1666666666666714
  0.0972126241174169  0.8333333333333286  0.6666666666666714
  0.1353763407923585  0.1666666666666714  0.3333333333333286
  0.1353763407923585  0.1666666666666714  0.8333333333333286
  0.1353763407923585  0.6666666666666714  0.3333333333333286
  0.1353763407923585  0.6666666666666714  0.8333333333333286
  0.1735244760247800  0.3333333333333286  0.1666666666666714
  0.1735244760247800  0.3333333333333286  0.6666666666666714
  0.1735244760247800  0.8333333333333286  0.1666666666666714
  0.1735244760247800  0.8333333333333286  0.6666666666666714
  0.2117076468370788  0.1666666666666714  0.3333333333333286
  0.2117076468370788  0.1666666666666714  0.8333333333333286
  0.2117076468370788  0.6666666666666714  0.3333333333333286
  0.2117076468370788  0.6666666666666714  0.8333333333333286
  0.2498308147013811  0.3333333333333286  0.1666666666666714
  0.2498308147013811  0.3333333333333286  0.6666666666666714
  0.2498308147013811  0.8333333333333286  0.1666666666666714
  0.2498308147013811  0.8333333333333286  0.6666666666666714
  0.2880139855136799  0.1666666666666714  0.3333333333333286
  0.2880139855136799  0.1666666666666714  0.8333333333333286
  0.2880139855136799  0.6666666666666714  0.3333333333333286
  0.2880139855136799  0.6666666666666714  0.8333333333333286
  0.3261621207461083  0.3333333333333286  0.1666666666666714
  0.3261621207461083  0.3333333333333286  0.6666666666666714
  0.3261621207461083  0.8333333333333286  0.1666666666666714
  0.3261621207461083  0.8333333333333286  0.6666666666666714
  0.3643258374210499  0.1666666666666714  0.3333333333333286
  0.3643258374210499  0.1666666666666714  0.8333333333333286
  0.3643258374210499  0.6666666666666714  0.3333333333333286
  0.3643258374210499  0.6666666666666714  0.8333333333333286
  0.4024259714415339  0.3333333333333286  0.1666666666666714
  0.4024259714415339  0.3333333333333286  0.6666666666666714
  0.4024259714415339  0.8333333333333286  0.1666666666666714
  0.4024259714415339  0.8333333333333286  0.6666666666666714
  0.4403357654756188  0.1666666666666714  0.3333333333333286
  0.4403357654756188  0.1666666666666714  0.8333333333333286
  0.4403357654756188  0.6666666666666714  0.3333333333333286
  0.4403357654756188  0.6666666666666714  0.8333333333333286
  0.5212026960628409  0.1666666666666714  0.3333333333333286
  0.5212026960628409  0.1666666666666714  0.8333333333333286
  0.5212026960628409  0.6666666666666714  0.3333333333333286
  0.5212026960628409  0.6666666666666714  0.8333333333333286
  0.5591124900969260  0.3333333333333286  0.1666666666666714
  0.5591124900969260  0.3333333333333286  0.6666666666666714
  0.5591124900969260  0.8333333333333286  0.1666666666666714
  0.5591124900969260  0.8333333333333286  0.6666666666666714
  0.5972126241174097  0.1666666666666714  0.3333333333333286
  0.5972126241174097  0.1666666666666714  0.8333333333333286
  0.5972126241174097  0.6666666666666714  0.3333333333333286
  0.5972126241174097  0.6666666666666714  0.8333333333333286
  0.6353763407923584  0.3333333333333286  0.1666666666666714
  0.6353763407923584  0.3333333333333286  0.6666666666666714
  0.6353763407923584  0.8333333333333286  0.1666666666666714
  0.6353763407923584  0.8333333333333286  0.6666666666666714
  0.6735244760247803  0.1666666666666714  0.3333333333333286
  0.6735244760247803  0.1666666666666714  0.8333333333333286
  0.6735244760247803  0.6666666666666714  0.3333333333333286
  0.6735244760247803  0.6666666666666714  0.8333333333333286
  0.7117076468370790  0.3333333333333286  0.1666666666666714
  0.7117076468370790  0.3333333333333286  0.6666666666666714
  0.7117076468370790  0.8333333333333286  0.1666666666666714
  0.7117076468370790  0.8333333333333286  0.6666666666666714
  0.7498308147013809  0.1666666666666714  0.3333333333333286
  0.7498308147013809  0.1666666666666714  0.8333333333333286
  0.7498308147013809  0.6666666666666714  0.3333333333333286
  0.7498308147013809  0.6666666666666714  0.8333333333333286
  0.7880139855136796  0.3333333333333286  0.1666666666666714
  0.7880139855136796  0.3333333333333286  0.6666666666666714
  0.7880139855136796  0.8333333333333286  0.1666666666666714
  0.7880139855136796  0.8333333333333286  0.6666666666666714
  0.8261621207461086  0.1666666666666714  0.3333333333333286
  0.8261621207461086  0.1666666666666714  0.8333333333333286
  0.8261621207461086  0.6666666666666714  0.3333333333333286
  0.8261621207461086  0.6666666666666714  0.8333333333333286
  0.8643258374210502  0.3333333333333286  0.1666666666666714
  0.8643258374210502  0.3333333333333286  0.6666666666666714
  0.8643258374210502  0.8333333333333286  0.1666666666666714
  0.8643258374210502  0.8333333333333286  0.6666666666666714
  0.9024259714415339  0.1666666666666714  0.3333333333333286
  0.9024259714415339  0.1666666666666714  0.8333333333333286
  0.9024259714415339  0.6666666666666714  0.3333333333333286
  0.9024259714415339  0.6666666666666714  0.8333333333333286
  0.9403357654756190  0.3333333333333286  0.1666666666666714
  0.9403357654756190  0.3333333333333286  0.6666666666666714
  0.9403357654756190  0.8333333333333286  0.1666666666666714
  0.9403357654756190  0.8333333333333286  0.6666666666666714
  0.4807692307692335  0.3333333333333286  0.1666666666666714
  0.4807692307692335  0.3333333333333286  0.6666666666666714
  0.4807692307692335  0.8333333333333286  0.1666666666666714
  0.4807692307692335  0.8333333333333286  0.6666666666666714
  0.9807692307692335  0.1666666666666714  0.3333333333333286
  0.9807692307692335  0.1666666666666714  0.8333333333333286
  0.9807692307692335  0.6666666666666714  0.3333333333333286
  0.9807692307692335  0.6666666666666714  0.8333333333333286
 
  0.00000000E+00  0.00000000E+00  0.00000000E+00
  0.00000000E+00  0.00000000E+00  0.00000000E+00
  0.00000000E+00  0.00000000E+00  0.00000000E+00
  0.00000000E+00  0.00000000E+00  0.00000000E+00
  0.00000000E+00  0.00000000E+00  0.00000000E+00
  0.00000000E+00  0.00000000E+00  0.00000000E+00
  0.00000000E+00  0.00000000E+00  0.00000000E+00
  0.00000000E+00  0.00000000E+00  0.00000000E+00
  0.00000000E+00  0.00000000E+00  0.00000000E+00
  0.00000000E+00  0.00000000E+00  0.00000000E+00
  0.00000000E+00  0.00000000E+00  0.00000000E+00
  0.00000000E+00  0.00000000E+00  0.00000000E+00
  0.00000000E+00  0.00000000E+00  0.00000000E+00
  0.00000000E+00  0.00000000E+00  0.00000000E+00
  0.00000000E+00  0.00000000E+00  0.00000000E+00
  0.00000000E+00  0.00000000E+00  0.00000000E+00
  0.00000000E+00  0.00000000E+00  0.00000000E+00
  0.00000000E+00  0.00000000E+00  0.00000000E+00
  0.00000000E+00  0.00000000E+00  0.00000000E+00
  0.00000000E+00  0.00000000E+00  0.00000000E+00
  0.00000000E+00  0.00000000E+00  0.00000000E+00
  0.00000000E+00  0.00000000E+00  0.00000000E+00
  0.00000000E+00  0.00000000E+00  0.00000000E+00
  0.00000000E+00  0.00000000E+00  0.00000000E+00
  0.00000000E+00  0.00000000E+00  0.00000000E+00
  0.00000000E+00  0.00000000E+00  0.00000000E+00
  0.00000000E+00  0.00000000E+00  0.00000000E+00
  0.00000000E+00  0.00000000E+00  0.00000000E+00
  0.00000000E+00  0.00000000E+00  0.00000000E+00
  0.00000000E+00  0.00000000E+00  0.00000000E+00
  0.00000000E+00  0.00000000E+00  0.00000000E+00
  0.00000000E+00  0.00000000E+00  0.00000000E+00
  0.00000000E+00  0.00000000E+00  0.00000000E+00
  0.00000000E+00  0.00000000E+00  0.00000000E+00
  0.00000000E+00  0.00000000E+00  0.00000000E+00
  0.00000000E+00  0.00000000E+00  0.00000000E+00
  0.00000000E+00  0.00000000E+00  0.00000000E+00
  0.00000000E+00  0.00000000E+00  0.00000000E+00
  0.00000000E+00  0.00000000E+00  0.00000000E+00
  0.00000000E+00  0.00000000E+00  0.00000000E+00
  0.00000000E+00  0.00000000E+00  0.00000000E+00
  0.00000000E+00  0.00000000E+00  0.00000000E+00
  0.00000000E+00  0.00000000E+00  0.00000000E+00
  0.00000000E+00  0.00000000E+00  0.00000000E+00
  0.00000000E+00  0.00000000E+00  0.00000000E+00
  0.00000000E+00  0.00000000E+00  0.00000000E+00
  0.00000000E+00  0.00000000E+00  0.00000000E+00
  0.00000000E+00  0.00000000E+00  0.00000000E+00
  0.00000000E+00  0.00000000E+00  0.00000000E+00
  0.00000000E+00  0.00000000E+00  0.00000000E+00
  0.00000000E+00  0.00000000E+00  0.00000000E+00
  0.00000000E+00  0.00000000E+00  0.00000000E+00
  0.00000000E+00  0.00000000E+00  0.00000000E+00
  0.00000000E+00  0.00000000E+00  0.00000000E+00
  0.00000000E+00  0.00000000E+00  0.00000000E+00
  0.00000000E+00  0.00000000E+00  0.00000000E+00
  0.00000000E+00  0.00000000E+00  0.00000000E+00
  0.00000000E+00  0.00000000E+00  0.00000000E+00
  0.00000000E+00  0.00000000E+00  0.00000000E+00
  0.00000000E+00  0.00000000E+00  0.00000000E+00
  0.00000000E+00  0.00000000E+00  0.00000000E+00
  0.00000000E+00  0.00000000E+00  0.00000000E+00
  0.00000000E+00  0.00000000E+00  0.00000000E+00
  0.00000000E+00  0.00000000E+00  0.00000000E+00
  0.00000000E+00  0.00000000E+00  0.00000000E+00
  0.00000000E+00  0.00000000E+00  0.00000000E+00
  0.00000000E+00  0.00000000E+00  0.00000000E+00
  0.00000000E+00  0.00000000E+00  0.00000000E+00
  0.00000000E+00  0.00000000E+00  0.00000000E+00
  0.00000000E+00  0.00000000E+00  0.00000000E+00
  0.00000000E+00  0.00000000E+00  0.00000000E+00
  0.00000000E+00  0.00000000E+00  0.00000000E+00
  0.00000000E+00  0.00000000E+00  0.00000000E+00
  0.00000000E+00  0.00000000E+00  0.00000000E+00
  0.00000000E+00  0.00000000E+00  0.00000000E+00
  0.00000000E+00  0.00000000E+00  0.00000000E+00
  0.00000000E+00  0.00000000E+00  0.00000000E+00
  0.00000000E+00  0.00000000E+00  0.00000000E+00
  0.00000000E+00  0.00000000E+00  0.00000000E+00
  0.00000000E+00  0.00000000E+00  0.00000000E+00
  0.00000000E+00  0.00000000E+00  0.00000000E+00
  0.00000000E+00  0.00000000E+00  0.00000000E+00
  0.00000000E+00  0.00000000E+00  0.00000000E+00
  0.00000000E+00  0.00000000E+00  0.00000000E+00
  0.00000000E+00  0.00000000E+00  0.00000000E+00
  0.00000000E+00  0.00000000E+00  0.00000000E+00
  0.00000000E+00  0.00000000E+00  0.00000000E+00
  0.00000000E+00  0.00000000E+00  0.00000000E+00
  0.00000000E+00  0.00000000E+00  0.00000000E+00
  0.00000000E+00  0.00000000E+00  0.00000000E+00
  0.00000000E+00  0.00000000E+00  0.00000000E+00
  0.00000000E+00  0.00000000E+00  0.00000000E+00
  0.00000000E+00  0.00000000E+00  0.00000000E+00
  0.00000000E+00  0.00000000E+00  0.00000000E+00
  0.00000000E+00  0.00000000E+00  0.00000000E+00
  0.00000000E+00  0.00000000E+00  0.00000000E+00
  0.00000000E+00  0.00000000E+00  0.00000000E+00
  0.00000000E+00  0.00000000E+00  0.00000000E+00
  0.00000000E+00  0.00000000E+00  0.00000000E+00
  0.00000000E+00  0.00000000E+00  0.00000000E+00
  0.00000000E+00  0.00000000E+00  0.00000000E+00
  0.00000000E+00  0.00000000E+00  0.00000000E+00
  0.00000000E+00  0.00000000E+00  0.00000000E+00
  0.00000000E+00  0.00000000E+00  0.00000000E+00
