generated by phonopy                    
    1.007957395069739     
    51.8514110822626506    0.0000000000000000   -0.0000000000000000
    -0.0000000000000000    4.9984701442572579    0.0000000000000001
    -0.0000000000000000   -2.4992350721286272    4.3288021249848612
   Co   Ru
    96     8
Direct
  0.0211803515862667  0.3333333333333286  0.1666666666666714
  0.0211803515862667  0.3333333333333286  0.6666666666666714
  0.0211803515862667  0.8333333333333286  0.1666666666666714
  0.0211803515862667  0.8333333333333286  0.6666666666666714
  0.0591132979307658  0.1666666666666714  0.3333333333333286
  0.0591132979307658  0.1666666666666714  0.8333333333333286
  0.0591132979307658  0.6666666666666714  0.3333333333333286
  0.0591132979307658  0.6666666666666714  0.8333333333333286
  0.0972231184351639  0.3333333333333286  0.1666666666666714
  0.0972231184351639  0.3333333333333286  0.6666666666666714
  0.0972231184351639  0.8333333333333286  0.1666666666666714
  0.0972231184351639  0.8333333333333286  0.6666666666666714
  0.1353861149661205  0.1666666666666714  0.3333333333333286
  0.1353861149661205  0.1666666666666714  0.8333333333333286
  0.1353861149661205  0.6666666666666714  0.3333333333333286
  0.1353861149661205  0.6666666666666714  0.8333333333333286
  0.1735313282705516  0.3333333333333286  0.1666666666666714
  0.1735313282705516  0.3333333333333286  0.6666666666666714
  0.1735313282705516  0.8333333333333286  0.1666666666666714
  0.1735313282705516  0.8333333333333286  0.6666666666666714
  0.2117068997443256  0.1666666666666714  0.3333333333333286
  0.2117068997443256  0.1666666666666714  0.8333333333333286
  0.2117068997443256  0.6666666666666714  0.3333333333333286
  0.2117068997443256  0.6666666666666714  0.8333333333333286
  0.2498315617941343  0.3333333333333286  0.1666666666666714
  0.2498315617941343  0.3333333333333286  0.6666666666666714
  0.2498315617941343  0.8333333333333286  0.1666666666666714
  0.2498315617941343  0.8333333333333286  0.6666666666666714
  0.2880071332679083  0.1666666666666714  0.3333333333333286
  0.2880071332679083  0.1666666666666714  0.8333333333333286
  0.2880071332679083  0.6666666666666714  0.3333333333333286
  0.2880071332679083  0.6666666666666714  0.8333333333333286
  0.3261523465723394  0.3333333333333286  0.1666666666666714
  0.3261523465723394  0.3333333333333286  0.6666666666666714
  0.3261523465723394  0.8333333333333286  0.1666666666666714
  0.3261523465723394  0.8333333333333286  0.6666666666666714
  0.3643153431033032  0.1666666666666714  0.3333333333333286
  0.3643153431033032  0.1666666666666714  0.8333333333333286
  0.3643153431033032  0.6666666666666714  0.3333333333333286
  0.3643153431033032  0.6666666666666714  0.8333333333333286
  0.4024251636076941  0.3333333333333286  0.1666666666666714
  0.4024251636076941  0.3333333333333286  0.6666666666666714
  0.4024251636076941  0.8333333333333286  0.1666666666666714
  0.4024251636076941  0.8333333333333286  0.6666666666666714
  0.4403581099521930  0.1666666666666714  0.3333333333333286
  0.4403581099521930  0.1666666666666714  0.8333333333333286
  0.4403581099521930  0.6666666666666714  0.3333333333333286
  0.4403581099521930  0.6666666666666714  0.8333333333333286
  0.5211803515862666  0.1666666666666714  0.3333333333333286
  0.5211803515862666  0.1666666666666714  0.8333333333333286
  0.5211803515862666  0.6666666666666714  0.3333333333333286
  0.5211803515862666  0.6666666666666714  0.8333333333333286
  0.5591132979307657  0.3333333333333286  0.1666666666666714
  0.5591132979307657  0.3333333333333286  0.6666666666666714
  0.5591132979307657  0.8333333333333286  0.1666666666666714
  0.5591132979307657  0.8333333333333286  0.6666666666666714
  0.5972231184351569  0.1666666666666714  0.3333333333333286
  0.5972231184351569  0.1666666666666714  0.8333333333333286
  0.5972231184351569  0.6666666666666714  0.3333333333333286
  0.5972231184351569  0.6666666666666714  0.8333333333333286
  0.6353861149661203  0.3333333333333286  0.1666666666666714
  0.6353861149661203  0.3333333333333286  0.6666666666666714
  0.6353861149661203  0.8333333333333286  0.1666666666666714
  0.6353861149661203  0.8333333333333286  0.6666666666666714
  0.6735313282705516  0.1666666666666714  0.3333333333333286
  0.6735313282705516  0.1666666666666714  0.8333333333333286
  0.6735313282705516  0.6666666666666714  0.3333333333333286
  0.6735313282705516  0.6666666666666714  0.8333333333333286
  0.7117068997443254  0.3333333333333286  0.1666666666666714
  0.7117068997443254  0.3333333333333286  0.6666666666666714
  0.7117068997443254  0.8333333333333286  0.1666666666666714
  0.7117068997443254  0.8333333333333286  0.6666666666666714
  0.7498315617941345  0.1666666666666714  0.3333333333333286
  0.7498315617941345  0.1666666666666714  0.8333333333333286
  0.7498315617941345  0.6666666666666714  0.3333333333333286
  0.7498315617941345  0.6666666666666714  0.8333333333333286
  0.7880071332679083  0.3333333333333286  0.1666666666666714
  0.7880071332679083  0.3333333333333286  0.6666666666666714
  0.7880071332679083  0.8333333333333286  0.1666666666666714
  0.7880071332679083  0.8333333333333286  0.6666666666666714
  0.8261523465723467  0.1666666666666714  0.3333333333333286
  0.8261523465723467  0.1666666666666714  0.8333333333333286
  0.8261523465723467  0.6666666666666714  0.3333333333333286
  0.8261523465723467  0.6666666666666714  0.8333333333333286
  0.8643153431033030  0.3333333333333286  0.1666666666666714
  0.8643153431033030  0.3333333333333286  0.6666666666666714
  0.8643153431033030  0.8333333333333286  0.1666666666666714
  0.8643153431033030  0.8333333333333286  0.6666666666666714
  0.9024251636076942  0.1666666666666714  0.3333333333333286
  0.9024251636076942  0.1666666666666714  0.8333333333333286
  0.9024251636076942  0.6666666666666714  0.3333333333333286
  0.9024251636076942  0.6666666666666714  0.8333333333333286
  0.9403581099521933  0.3333333333333286  0.1666666666666714
  0.9403581099521933  0.3333333333333286  0.6666666666666714
  0.9403581099521933  0.8333333333333286  0.1666666666666714
  0.9403581099521933  0.8333333333333286  0.6666666666666714
  0.4807692307692335  0.3333333333333286  0.1666666666666714
  0.4807692307692335  0.3333333333333286  0.6666666666666714
  0.4807692307692335  0.8333333333333286  0.1666666666666714
  0.4807692307692335  0.8333333333333286  0.6666666666666714
  0.9807692307692335  0.1666666666666714  0.3333333333333286
  0.9807692307692335  0.1666666666666714  0.8333333333333286
  0.9807692307692335  0.6666666666666714  0.3333333333333286
  0.9807692307692335  0.6666666666666714  0.8333333333333286
 
  0.00000000E+00  0.00000000E+00  0.00000000E+00
  0.00000000E+00  0.00000000E+00  0.00000000E+00
  0.00000000E+00  0.00000000E+00  0.00000000E+00
  0.00000000E+00  0.00000000E+00  0.00000000E+00
  0.00000000E+00  0.00000000E+00  0.00000000E+00
  0.00000000E+00  0.00000000E+00  0.00000000E+00
  0.00000000E+00  0.00000000E+00  0.00000000E+00
  0.00000000E+00  0.00000000E+00  0.00000000E+00
  0.00000000E+00  0.00000000E+00  0.00000000E+00
  0.00000000E+00  0.00000000E+00  0.00000000E+00
  0.00000000E+00  0.00000000E+00  0.00000000E+00
  0.00000000E+00  0.00000000E+00  0.00000000E+00
  0.00000000E+00  0.00000000E+00  0.00000000E+00
  0.00000000E+00  0.00000000E+00  0.00000000E+00
  0.00000000E+00  0.00000000E+00  0.00000000E+00
  0.00000000E+00  0.00000000E+00  0.00000000E+00
  0.00000000E+00  0.00000000E+00  0.00000000E+00
  0.00000000E+00  0.00000000E+00  0.00000000E+00
  0.00000000E+00  0.00000000E+00  0.00000000E+00
  0.00000000E+00  0.00000000E+00  0.00000000E+00
  0.00000000E+00  0.00000000E+00  0.00000000E+00
  0.00000000E+00  0.00000000E+00  0.00000000E+00
  0.00000000E+00  0.00000000E+00  0.00000000E+00
  0.00000000E+00  0.00000000E+00  0.00000000E+00
  0.00000000E+00  0.00000000E+00  0.00000000E+00
  0.00000000E+00  0.00000000E+00  0.00000000E+00
  0.00000000E+00  0.00000000E+00  0.00000000E+00
  0.00000000E+00  0.00000000E+00  0.00000000E+00
  0.00000000E+00  0.00000000E+00  0.00000000E+00
  0.00000000E+00  0.00000000E+00  0.00000000E+00
  0.00000000E+00  0.00000000E+00  0.00000000E+00
  0.00000000E+00  0.00000000E+00  0.00000000E+00
  0.00000000E+00  0.00000000E+00  0.00000000E+00
  0.00000000E+00  0.00000000E+00  0.00000000E+00
  0.00000000E+00  0.00000000E+00  0.00000000E+00
  0.00000000E+00  0.00000000E+00  0.00000000E+00
  0.00000000E+00  0.00000000E+00  0.00000000E+00
  0.00000000E+00  0.00000000E+00  0.00000000E+00
  0.00000000E+00  0.00000000E+00  0.00000000E+00
  0.00000000E+00  0.00000000E+00  0.00000000E+00
  0.00000000E+00  0.00000000E+00  0.00000000E+00
  0.00000000E+00  0.00000000E+00  0.00000000E+00
  0.00000000E+00  0.00000000E+00  0.00000000E+00
  0.00000000E+00  0.00000000E+00  0.00000000E+00
  0.00000000E+00  0.00000000E+00  0.00000000E+00
  0.00000000E+00  0.00000000E+00  0.00000000E+00
  0.00000000E+00  0.00000000E+00  0.00000000E+00
  0.00000000E+00  0.00000000E+00  0.00000000E+00
  0.00000000E+00  0.00000000E+00  0.00000000E+00
  0.00000000E+00  0.00000000E+00  0.00000000E+00
  0.00000000E+00  0.00000000E+00  0.00000000E+00
  0.00000000E+00  0.00000000E+00  0.00000000E+00
  0.00000000E+00  0.00000000E+00  0.00000000E+00
  0.00000000E+00  0.00000000E+00  0.00000000E+00
  0.00000000E+00  0.00000000E+00  0.00000000E+00
  0.00000000E+00  0.00000000E+00  0.00000000E+00
  0.00000000E+00  0.00000000E+00  0.00000000E+00
  0.00000000E+00  0.00000000E+00  0.00000000E+00
  0.00000000E+00  0.00000000E+00  0.00000000E+00
  0.00000000E+00  0.00000000E+00  0.00000000E+00
  0.00000000E+00  0.00000000E+00  0.00000000E+00
  0.00000000E+00  0.00000000E+00  0.00000000E+00
  0.00000000E+00  0.00000000E+00  0.00000000E+00
  0.00000000E+00  0.00000000E+00  0.00000000E+00
  0.00000000E+00  0.00000000E+00  0.00000000E+00
  0.00000000E+00  0.00000000E+00  0.00000000E+00
  0.00000000E+00  0.00000000E+00  0.00000000E+00
  0.00000000E+00  0.00000000E+00  0.00000000E+00
  0.00000000E+00  0.00000000E+00  0.00000000E+00
  0.00000000E+00  0.00000000E+00  0.00000000E+00
  0.00000000E+00  0.00000000E+00  0.00000000E+00
  0.00000000E+00  0.00000000E+00  0.00000000E+00
  0.00000000E+00  0.00000000E+00  0.00000000E+00
  0.00000000E+00  0.00000000E+00  0.00000000E+00
  0.00000000E+00  0.00000000E+00  0.00000000E+00
  0.00000000E+00  0.00000000E+00  0.00000000E+00
  0.00000000E+00  0.00000000E+00  0.00000000E+00
  0.00000000E+00  0.00000000E+00  0.00000000E+00
  0.00000000E+00  0.00000000E+00  0.00000000E+00
  0.00000000E+00  0.00000000E+00  0.00000000E+00
  0.00000000E+00  0.00000000E+00  0.00000000E+00
  0.00000000E+00  0.00000000E+00  0.00000000E+00
  0.00000000E+00  0.00000000E+00  0.00000000E+00
  0.00000000E+00  0.00000000E+00  0.00000000E+00
  0.00000000E+00  0.00000000E+00  0.00000000E+00
  0.00000000E+00  0.00000000E+00  0.00000000E+00
  0.00000000E+00  0.00000000E+00  0.00000000E+00
  0.00000000E+00  0.00000000E+00  0.00000000E+00
  0.00000000E+00  0.00000000E+00  0.00000000E+00
  0.00000000E+00  0.00000000E+00  0.00000000E+00
  0.00000000E+00  0.00000000E+00  0.00000000E+00
  0.00000000E+00  0.00000000E+00  0.00000000E+00
  0.00000000E+00  0.00000000E+00  0.00000000E+00
  0.00000000E+00  0.00000000E+00  0.00000000E+00
  0.00000000E+00  0.00000000E+00  0.00000000E+00
  0.00000000E+00  0.00000000E+00  0.00000000E+00
  0.00000000E+00  0.00000000E+00  0.00000000E+00
  0.00000000E+00  0.00000000E+00  0.00000000E+00
  0.00000000E+00  0.00000000E+00  0.00000000E+00
  0.00000000E+00  0.00000000E+00  0.00000000E+00
  0.00000000E+00  0.00000000E+00  0.00000000E+00
  0.00000000E+00  0.00000000E+00  0.00000000E+00
  0.00000000E+00  0.00000000E+00  0.00000000E+00
  0.00000000E+00  0.00000000E+00  0.00000000E+00
