generated by phonopy                    
    1.021152739708072     
    51.7615375345626987    0.0000000000000000    0.0000000000000000
     0.0000000000000000    5.0500216979192230   -0.0000000000000004
    -0.0000000000000000   -2.5250108489596106    4.3734470800606813
   Co   Ru
    88    16
Direct
  0.0225662575388566  0.3333333333333286  0.1666666666666714
  0.0225662575388566  0.3333333333333286  0.6666666666666714
  0.0225662575388566  0.8333333333333286  0.1666666666666714
  0.0225662575388566  0.8333333333333286  0.6666666666666714
  0.0601695496770208  0.1666666666666714  0.3333333333333286
  0.0601695496770208  0.1666666666666714  0.8333333333333286
  0.0601695496770208  0.6666666666666714  0.3333333333333286
  0.0601695496770208  0.6666666666666714  0.8333333333333286
  0.0980364205324845  0.3333333333333286  0.1666666666666714
  0.0980364205324845  0.3333333333333286  0.6666666666666714
  0.0980364205324845  0.8333333333333286  0.1666666666666714
  0.0980364205324845  0.8333333333333286  0.6666666666666714
  0.1358537710531335  0.1666666666666714  0.3333333333333286
  0.1358537710531335  0.1666666666666714  0.8333333333333286
  0.1358537710531335  0.6666666666666714  0.3333333333333286
  0.1358537710531335  0.6666666666666714  0.8333333333333286
  0.1737122289819090  0.3333333333333286  0.1666666666666714
  0.1737122289819090  0.3333333333333286  0.6666666666666714
  0.1737122289819090  0.8333333333333286  0.1666666666666714
  0.1737122289819090  0.8333333333333286  0.6666666666666714
  0.2115405017389733  0.1666666666666714  0.3333333333333286
  0.2115405017389733  0.1666666666666714  0.8333333333333286
  0.2115405017389733  0.6666666666666714  0.3333333333333286
  0.2115405017389733  0.6666666666666714  0.8333333333333286
  0.2493678472184900  0.3333333333333286  0.1666666666666714
  0.2493678472184900  0.3333333333333286  0.6666666666666714
  0.2493678472184900  0.8333333333333286  0.1666666666666714
  0.2493678472184900  0.8333333333333286  0.6666666666666714
  0.2872239856410077  0.1666666666666714  0.3333333333333286
  0.2872239856410077  0.1666666666666714  0.8333333333333286
  0.2872239856410077  0.6666666666666714  0.3333333333333286
  0.2872239856410077  0.6666666666666714  0.8333333333333286
  0.3250400083426426  0.3333333333333286  0.1666666666666714
  0.3250400083426426  0.3333333333333286  0.6666666666666714
  0.3250400083426426  0.8333333333333286  0.1666666666666714
  0.3250400083426426  0.8333333333333286  0.6666666666666714
  0.3629066711790616  0.1666666666666714  0.3333333333333286
  0.3629066711790616  0.1666666666666714  0.8333333333333286
  0.3629066711790616  0.6666666666666714  0.3333333333333286
  0.3629066711790616  0.6666666666666714  0.8333333333333286
  0.4005091146807218  0.3333333333333286  0.1666666666666714
  0.4005091146807218  0.3333333333333286  0.6666666666666714
  0.4005091146807218  0.8333333333333286  0.1666666666666714
  0.4005091146807218  0.8333333333333286  0.6666666666666714
  0.5225662575388574  0.1666666666666714  0.3333333333333286
  0.5225662575388574  0.1666666666666714  0.8333333333333286
  0.5225662575388574  0.6666666666666714  0.3333333333333286
  0.5225662575388574  0.6666666666666714  0.8333333333333286
  0.5601695496770213  0.3333333333333286  0.1666666666666714
  0.5601695496770213  0.3333333333333286  0.6666666666666714
  0.5601695496770213  0.8333333333333286  0.1666666666666714
  0.5601695496770213  0.8333333333333286  0.6666666666666714
  0.5980364205324783  0.1666666666666714  0.3333333333333286
  0.5980364205324783  0.1666666666666714  0.8333333333333286
  0.5980364205324783  0.6666666666666714  0.3333333333333286
  0.5980364205324783  0.6666666666666714  0.8333333333333286
  0.6358537710531267  0.3333333333333286  0.1666666666666714
  0.6358537710531267  0.3333333333333286  0.6666666666666714
  0.6358537710531267  0.8333333333333286  0.1666666666666714
  0.6358537710531267  0.8333333333333286  0.6666666666666714
  0.6737122289819090  0.1666666666666714  0.3333333333333286
  0.6737122289819090  0.1666666666666714  0.8333333333333286
  0.6737122289819090  0.6666666666666714  0.3333333333333286
  0.6737122289819090  0.6666666666666714  0.8333333333333286
  0.7115405017389733  0.3333333333333286  0.1666666666666714
  0.7115405017389733  0.3333333333333286  0.6666666666666714
  0.7115405017389733  0.8333333333333286  0.1666666666666714
  0.7115405017389733  0.8333333333333286  0.6666666666666714
  0.7493678472184905  0.1666666666666714  0.3333333333333286
  0.7493678472184905  0.1666666666666714  0.8333333333333286
  0.7493678472184905  0.6666666666666714  0.3333333333333286
  0.7493678472184905  0.6666666666666714  0.8333333333333286
  0.7872239856410076  0.3333333333333286  0.1666666666666714
  0.7872239856410076  0.3333333333333286  0.6666666666666714
  0.7872239856410076  0.8333333333333286  0.1666666666666714
  0.7872239856410076  0.8333333333333286  0.6666666666666714
  0.8250400083426420  0.1666666666666714  0.3333333333333286
  0.8250400083426420  0.1666666666666714  0.8333333333333286
  0.8250400083426420  0.6666666666666714  0.3333333333333286
  0.8250400083426420  0.6666666666666714  0.8333333333333286
  0.8629066711790606  0.3333333333333286  0.1666666666666714
  0.8629066711790606  0.3333333333333286  0.6666666666666714
  0.8629066711790606  0.8333333333333286  0.1666666666666714
  0.8629066711790606  0.8333333333333286  0.6666666666666714
  0.9005091146807211  0.1666666666666714  0.3333333333333286
  0.9005091146807211  0.1666666666666714  0.8333333333333286
  0.9005091146807211  0.6666666666666714  0.3333333333333286
  0.9005091146807211  0.6666666666666714  0.8333333333333286
  0.4407393396456616  0.1666666666666714  0.3333333333333286
  0.4407393396456616  0.1666666666666714  0.8333333333333286
  0.4407393396456616  0.6666666666666714  0.3333333333333286
  0.4407393396456616  0.6666666666666714  0.8333333333333286
  0.4823343037700507  0.3333333333333286  0.1666666666666714
  0.4823343037700507  0.3333333333333286  0.6666666666666714
  0.4823343037700507  0.8333333333333286  0.1666666666666714
  0.4823343037700507  0.8333333333333286  0.6666666666666714
  0.9407393396456623  0.3333333333333286  0.1666666666666714
  0.9407393396456623  0.3333333333333286  0.6666666666666714
  0.9407393396456623  0.8333333333333286  0.1666666666666714
  0.9407393396456623  0.8333333333333286  0.6666666666666714
  0.9823343037700500  0.1666666666666714  0.3333333333333286
  0.9823343037700500  0.1666666666666714  0.8333333333333286
  0.9823343037700500  0.6666666666666714  0.3333333333333286
  0.9823343037700500  0.6666666666666714  0.8333333333333286
 
  0.00000000E+00  0.00000000E+00  0.00000000E+00
  0.00000000E+00  0.00000000E+00  0.00000000E+00
  0.00000000E+00  0.00000000E+00  0.00000000E+00
  0.00000000E+00  0.00000000E+00  0.00000000E+00
  0.00000000E+00  0.00000000E+00  0.00000000E+00
  0.00000000E+00  0.00000000E+00  0.00000000E+00
  0.00000000E+00  0.00000000E+00  0.00000000E+00
  0.00000000E+00  0.00000000E+00  0.00000000E+00
  0.00000000E+00  0.00000000E+00  0.00000000E+00
  0.00000000E+00  0.00000000E+00  0.00000000E+00
  0.00000000E+00  0.00000000E+00  0.00000000E+00
  0.00000000E+00  0.00000000E+00  0.00000000E+00
  0.00000000E+00  0.00000000E+00  0.00000000E+00
  0.00000000E+00  0.00000000E+00  0.00000000E+00
  0.00000000E+00  0.00000000E+00  0.00000000E+00
  0.00000000E+00  0.00000000E+00  0.00000000E+00
  0.00000000E+00  0.00000000E+00  0.00000000E+00
  0.00000000E+00  0.00000000E+00  0.00000000E+00
  0.00000000E+00  0.00000000E+00  0.00000000E+00
  0.00000000E+00  0.00000000E+00  0.00000000E+00
  0.00000000E+00  0.00000000E+00  0.00000000E+00
  0.00000000E+00  0.00000000E+00  0.00000000E+00
  0.00000000E+00  0.00000000E+00  0.00000000E+00
  0.00000000E+00  0.00000000E+00  0.00000000E+00
  0.00000000E+00  0.00000000E+00  0.00000000E+00
  0.00000000E+00  0.00000000E+00  0.00000000E+00
  0.00000000E+00  0.00000000E+00  0.00000000E+00
  0.00000000E+00  0.00000000E+00  0.00000000E+00
  0.00000000E+00  0.00000000E+00  0.00000000E+00
  0.00000000E+00  0.00000000E+00  0.00000000E+00
  0.00000000E+00  0.00000000E+00  0.00000000E+00
  0.00000000E+00  0.00000000E+00  0.00000000E+00
  0.00000000E+00  0.00000000E+00  0.00000000E+00
  0.00000000E+00  0.00000000E+00  0.00000000E+00
  0.00000000E+00  0.00000000E+00  0.00000000E+00
  0.00000000E+00  0.00000000E+00  0.00000000E+00
  0.00000000E+00  0.00000000E+00  0.00000000E+00
  0.00000000E+00  0.00000000E+00  0.00000000E+00
  0.00000000E+00  0.00000000E+00  0.00000000E+00
  0.00000000E+00  0.00000000E+00  0.00000000E+00
  0.00000000E+00  0.00000000E+00  0.00000000E+00
  0.00000000E+00  0.00000000E+00  0.00000000E+00
  0.00000000E+00  0.00000000E+00  0.00000000E+00
  0.00000000E+00  0.00000000E+00  0.00000000E+00
  0.00000000E+00  0.00000000E+00  0.00000000E+00
  0.00000000E+00  0.00000000E+00  0.00000000E+00
  0.00000000E+00  0.00000000E+00  0.00000000E+00
  0.00000000E+00  0.00000000E+00  0.00000000E+00
  0.00000000E+00  0.00000000E+00  0.00000000E+00
  0.00000000E+00  0.00000000E+00  0.00000000E+00
  0.00000000E+00  0.00000000E+00  0.00000000E+00
  0.00000000E+00  0.00000000E+00  0.00000000E+00
  0.00000000E+00  0.00000000E+00  0.00000000E+00
  0.00000000E+00  0.00000000E+00  0.00000000E+00
  0.00000000E+00  0.00000000E+00  0.00000000E+00
  0.00000000E+00  0.00000000E+00  0.00000000E+00
  0.00000000E+00  0.00000000E+00  0.00000000E+00
  0.00000000E+00  0.00000000E+00  0.00000000E+00
  0.00000000E+00  0.00000000E+00  0.00000000E+00
  0.00000000E+00  0.00000000E+00  0.00000000E+00
  0.00000000E+00  0.00000000E+00  0.00000000E+00
  0.00000000E+00  0.00000000E+00  0.00000000E+00
  0.00000000E+00  0.00000000E+00  0.00000000E+00
  0.00000000E+00  0.00000000E+00  0.00000000E+00
  0.00000000E+00  0.00000000E+00  0.00000000E+00
  0.00000000E+00  0.00000000E+00  0.00000000E+00
  0.00000000E+00  0.00000000E+00  0.00000000E+00
  0.00000000E+00  0.00000000E+00  0.00000000E+00
  0.00000000E+00  0.00000000E+00  0.00000000E+00
  0.00000000E+00  0.00000000E+00  0.00000000E+00
  0.00000000E+00  0.00000000E+00  0.00000000E+00
  0.00000000E+00  0.00000000E+00  0.00000000E+00
  0.00000000E+00  0.00000000E+00  0.00000000E+00
  0.00000000E+00  0.00000000E+00  0.00000000E+00
  0.00000000E+00  0.00000000E+00  0.00000000E+00
  0.00000000E+00  0.00000000E+00  0.00000000E+00
  0.00000000E+00  0.00000000E+00  0.00000000E+00
  0.00000000E+00  0.00000000E+00  0.00000000E+00
  0.00000000E+00  0.00000000E+00  0.00000000E+00
  0.00000000E+00  0.00000000E+00  0.00000000E+00
  0.00000000E+00  0.00000000E+00  0.00000000E+00
  0.00000000E+00  0.00000000E+00  0.00000000E+00
  0.00000000E+00  0.00000000E+00  0.00000000E+00
  0.00000000E+00  0.00000000E+00  0.00000000E+00
  0.00000000E+00  0.00000000E+00  0.00000000E+00
  0.00000000E+00  0.00000000E+00  0.00000000E+00
  0.00000000E+00  0.00000000E+00  0.00000000E+00
  0.00000000E+00  0.00000000E+00  0.00000000E+00
  0.00000000E+00  0.00000000E+00  0.00000000E+00
  0.00000000E+00  0.00000000E+00  0.00000000E+00
  0.00000000E+00  0.00000000E+00  0.00000000E+00
  0.00000000E+00  0.00000000E+00  0.00000000E+00
  0.00000000E+00  0.00000000E+00  0.00000000E+00
  0.00000000E+00  0.00000000E+00  0.00000000E+00
  0.00000000E+00  0.00000000E+00  0.00000000E+00
  0.00000000E+00  0.00000000E+00  0.00000000E+00
  0.00000000E+00  0.00000000E+00  0.00000000E+00
  0.00000000E+00  0.00000000E+00  0.00000000E+00
  0.00000000E+00  0.00000000E+00  0.00000000E+00
  0.00000000E+00  0.00000000E+00  0.00000000E+00
  0.00000000E+00  0.00000000E+00  0.00000000E+00
  0.00000000E+00  0.00000000E+00  0.00000000E+00
  0.00000000E+00  0.00000000E+00  0.00000000E+00
  0.00000000E+00  0.00000000E+00  0.00000000E+00
