generated by phonopy                    
    1.011238009326129     
    51.7619985722630247    0.0000000000000000   -0.0000000000000000
     0.0000000000000000    5.0499992079107408    0.0000000000000003
     0.0000000000000000   -2.5249996039553695    4.3734276031419954
   Co   Ru
    88    16
Direct
  0.0228082641363786  0.3333333333333286  0.1666666666666714
  0.0228082641363786  0.3333333333333286  0.6666666666666714
  0.0228082641363786  0.8333333333333286  0.1666666666666714
  0.0228082641363786  0.8333333333333286  0.6666666666666714
  0.0603881974326450  0.1666666666666714  0.3333333333333286
  0.0603881974326450  0.1666666666666714  0.8333333333333286
  0.0603881974326450  0.6666666666666714  0.3333333333333286
  0.0603881974326450  0.6666666666666714  0.8333333333333286
  0.0982073156199514  0.3333333333333286  0.1666666666666714
  0.0982073156199514  0.3333333333333286  0.6666666666666714
  0.0982073156199514  0.8333333333333286  0.1666666666666714
  0.0982073156199514  0.8333333333333286  0.6666666666666714
  0.1359842543185567  0.1666666666666714  0.3333333333333286
  0.1359842543185567  0.1666666666666714  0.8333333333333286
  0.1359842543185567  0.6666666666666714  0.3333333333333286
  0.1359842543185567  0.6666666666666714  0.8333333333333286
  0.1737836084966662  0.3333333333333286  0.1666666666666714
  0.1737836084966662  0.3333333333333286  0.6666666666666714
  0.1737836084966662  0.8333333333333286  0.1666666666666714
  0.1737836084966662  0.8333333333333286  0.6666666666666714
  0.2115405017389733  0.1666666666666714  0.3333333333333286
  0.2115405017389733  0.1666666666666714  0.8333333333333286
  0.2115405017389733  0.6666666666666714  0.3333333333333286
  0.2115405017389733  0.6666666666666714  0.8333333333333286
  0.2492964677037332  0.3333333333333286  0.1666666666666714
  0.2492964677037332  0.3333333333333286  0.6666666666666714
  0.2492964677037332  0.8333333333333286  0.1666666666666714
  0.2492964677037332  0.8333333333333286  0.6666666666666714
  0.2870935023755845  0.1666666666666714  0.3333333333333286
  0.2870935023755845  0.1666666666666714  0.8333333333333286
  0.2870935023755845  0.6666666666666714  0.3333333333333286
  0.2870935023755845  0.6666666666666714  0.8333333333333286
  0.3248691132551759  0.3333333333333286  0.1666666666666714
  0.3248691132551759  0.3333333333333286  0.6666666666666714
  0.3248691132551759  0.8333333333333286  0.1666666666666714
  0.3248691132551759  0.8333333333333286  0.6666666666666714
  0.3626880234234367  0.1666666666666714  0.3333333333333286
  0.3626880234234367  0.1666666666666714  0.8333333333333286
  0.3626880234234367  0.6666666666666714  0.3333333333333286
  0.3626880234234367  0.6666666666666714  0.8333333333333286
  0.4002671080832003  0.3333333333333286  0.1666666666666714
  0.4002671080832003  0.3333333333333286  0.6666666666666714
  0.4002671080832003  0.8333333333333286  0.1666666666666714
  0.4002671080832003  0.8333333333333286  0.6666666666666714
  0.5228082641363787  0.1666666666666714  0.3333333333333286
  0.5228082641363787  0.1666666666666714  0.8333333333333286
  0.5228082641363787  0.6666666666666714  0.3333333333333286
  0.5228082641363787  0.6666666666666714  0.8333333333333286
  0.5603881974326450  0.3333333333333286  0.1666666666666714
  0.5603881974326450  0.3333333333333286  0.6666666666666714
  0.5603881974326450  0.8333333333333286  0.1666666666666714
  0.5603881974326450  0.8333333333333286  0.6666666666666714
  0.5982073156199448  0.1666666666666714  0.3333333333333286
  0.5982073156199448  0.1666666666666714  0.8333333333333286
  0.5982073156199448  0.6666666666666714  0.3333333333333286
  0.5982073156199448  0.6666666666666714  0.8333333333333286
  0.6359842543185493  0.3333333333333286  0.1666666666666714
  0.6359842543185493  0.3333333333333286  0.6666666666666714
  0.6359842543185493  0.8333333333333286  0.1666666666666714
  0.6359842543185493  0.8333333333333286  0.6666666666666714
  0.6737836084966663  0.1666666666666714  0.3333333333333286
  0.6737836084966663  0.1666666666666714  0.8333333333333286
  0.6737836084966663  0.6666666666666714  0.3333333333333286
  0.6737836084966663  0.6666666666666714  0.8333333333333286
  0.7115405017389733  0.3333333333333286  0.1666666666666714
  0.7115405017389733  0.3333333333333286  0.6666666666666714
  0.7115405017389733  0.8333333333333286  0.1666666666666714
  0.7115405017389733  0.8333333333333286  0.6666666666666714
  0.7492964677037331  0.1666666666666714  0.3333333333333286
  0.7492964677037331  0.1666666666666714  0.8333333333333286
  0.7492964677037331  0.6666666666666714  0.3333333333333286
  0.7492964677037331  0.6666666666666714  0.8333333333333286
  0.7870935023755848  0.3333333333333286  0.1666666666666714
  0.7870935023755848  0.3333333333333286  0.6666666666666714
  0.7870935023755848  0.8333333333333286  0.1666666666666714
  0.7870935023755848  0.8333333333333286  0.6666666666666714
  0.8248691132551755  0.1666666666666714  0.3333333333333286
  0.8248691132551755  0.1666666666666714  0.8333333333333286
  0.8248691132551755  0.6666666666666714  0.3333333333333286
  0.8248691132551755  0.6666666666666714  0.8333333333333286
  0.8626880234234369  0.3333333333333286  0.1666666666666714
  0.8626880234234369  0.3333333333333286  0.6666666666666714
  0.8626880234234369  0.8333333333333286  0.1666666666666714
  0.8626880234234369  0.8333333333333286  0.6666666666666714
  0.9002671080831999  0.1666666666666714  0.3333333333333286
  0.9002671080831999  0.1666666666666714  0.8333333333333286
  0.9002671080831999  0.6666666666666714  0.3333333333333286
  0.9002671080831999  0.6666666666666714  0.8333333333333286
  0.4404820562215626  0.1666666666666714  0.3333333333333286
  0.4404820562215626  0.1666666666666714  0.8333333333333286
  0.4404820562215626  0.6666666666666714  0.3333333333333286
  0.4404820562215626  0.6666666666666714  0.8333333333333286
  0.4825915871941497  0.3333333333333286  0.1666666666666714
  0.4825915871941497  0.3333333333333286  0.6666666666666714
  0.4825915871941497  0.8333333333333286  0.1666666666666714
  0.4825915871941497  0.8333333333333286  0.6666666666666714
  0.9404820562215629  0.3333333333333286  0.1666666666666714
  0.9404820562215629  0.3333333333333286  0.6666666666666714
  0.9404820562215629  0.8333333333333286  0.1666666666666714
  0.9404820562215629  0.8333333333333286  0.6666666666666714
  0.9825915871941494  0.1666666666666714  0.3333333333333286
  0.9825915871941494  0.1666666666666714  0.8333333333333286
  0.9825915871941494  0.6666666666666714  0.3333333333333286
  0.9825915871941494  0.6666666666666714  0.8333333333333286
 
  0.00000000E+00  0.00000000E+00  0.00000000E+00
  0.00000000E+00  0.00000000E+00  0.00000000E+00
  0.00000000E+00  0.00000000E+00  0.00000000E+00
  0.00000000E+00  0.00000000E+00  0.00000000E+00
  0.00000000E+00  0.00000000E+00  0.00000000E+00
  0.00000000E+00  0.00000000E+00  0.00000000E+00
  0.00000000E+00  0.00000000E+00  0.00000000E+00
  0.00000000E+00  0.00000000E+00  0.00000000E+00
  0.00000000E+00  0.00000000E+00  0.00000000E+00
  0.00000000E+00  0.00000000E+00  0.00000000E+00
  0.00000000E+00  0.00000000E+00  0.00000000E+00
  0.00000000E+00  0.00000000E+00  0.00000000E+00
  0.00000000E+00  0.00000000E+00  0.00000000E+00
  0.00000000E+00  0.00000000E+00  0.00000000E+00
  0.00000000E+00  0.00000000E+00  0.00000000E+00
  0.00000000E+00  0.00000000E+00  0.00000000E+00
  0.00000000E+00  0.00000000E+00  0.00000000E+00
  0.00000000E+00  0.00000000E+00  0.00000000E+00
  0.00000000E+00  0.00000000E+00  0.00000000E+00
  0.00000000E+00  0.00000000E+00  0.00000000E+00
  0.00000000E+00  0.00000000E+00  0.00000000E+00
  0.00000000E+00  0.00000000E+00  0.00000000E+00
  0.00000000E+00  0.00000000E+00  0.00000000E+00
  0.00000000E+00  0.00000000E+00  0.00000000E+00
  0.00000000E+00  0.00000000E+00  0.00000000E+00
  0.00000000E+00  0.00000000E+00  0.00000000E+00
  0.00000000E+00  0.00000000E+00  0.00000000E+00
  0.00000000E+00  0.00000000E+00  0.00000000E+00
  0.00000000E+00  0.00000000E+00  0.00000000E+00
  0.00000000E+00  0.00000000E+00  0.00000000E+00
  0.00000000E+00  0.00000000E+00  0.00000000E+00
  0.00000000E+00  0.00000000E+00  0.00000000E+00
  0.00000000E+00  0.00000000E+00  0.00000000E+00
  0.00000000E+00  0.00000000E+00  0.00000000E+00
  0.00000000E+00  0.00000000E+00  0.00000000E+00
  0.00000000E+00  0.00000000E+00  0.00000000E+00
  0.00000000E+00  0.00000000E+00  0.00000000E+00
  0.00000000E+00  0.00000000E+00  0.00000000E+00
  0.00000000E+00  0.00000000E+00  0.00000000E+00
  0.00000000E+00  0.00000000E+00  0.00000000E+00
  0.00000000E+00  0.00000000E+00  0.00000000E+00
  0.00000000E+00  0.00000000E+00  0.00000000E+00
  0.00000000E+00  0.00000000E+00  0.00000000E+00
  0.00000000E+00  0.00000000E+00  0.00000000E+00
  0.00000000E+00  0.00000000E+00  0.00000000E+00
  0.00000000E+00  0.00000000E+00  0.00000000E+00
  0.00000000E+00  0.00000000E+00  0.00000000E+00
  0.00000000E+00  0.00000000E+00  0.00000000E+00
  0.00000000E+00  0.00000000E+00  0.00000000E+00
  0.00000000E+00  0.00000000E+00  0.00000000E+00
  0.00000000E+00  0.00000000E+00  0.00000000E+00
  0.00000000E+00  0.00000000E+00  0.00000000E+00
  0.00000000E+00  0.00000000E+00  0.00000000E+00
  0.00000000E+00  0.00000000E+00  0.00000000E+00
  0.00000000E+00  0.00000000E+00  0.00000000E+00
  0.00000000E+00  0.00000000E+00  0.00000000E+00
  0.00000000E+00  0.00000000E+00  0.00000000E+00
  0.00000000E+00  0.00000000E+00  0.00000000E+00
  0.00000000E+00  0.00000000E+00  0.00000000E+00
  0.00000000E+00  0.00000000E+00  0.00000000E+00
  0.00000000E+00  0.00000000E+00  0.00000000E+00
  0.00000000E+00  0.00000000E+00  0.00000000E+00
  0.00000000E+00  0.00000000E+00  0.00000000E+00
  0.00000000E+00  0.00000000E+00  0.00000000E+00
  0.00000000E+00  0.00000000E+00  0.00000000E+00
  0.00000000E+00  0.00000000E+00  0.00000000E+00
  0.00000000E+00  0.00000000E+00  0.00000000E+00
  0.00000000E+00  0.00000000E+00  0.00000000E+00
  0.00000000E+00  0.00000000E+00  0.00000000E+00
  0.00000000E+00  0.00000000E+00  0.00000000E+00
  0.00000000E+00  0.00000000E+00  0.00000000E+00
  0.00000000E+00  0.00000000E+00  0.00000000E+00
  0.00000000E+00  0.00000000E+00  0.00000000E+00
  0.00000000E+00  0.00000000E+00  0.00000000E+00
  0.00000000E+00  0.00000000E+00  0.00000000E+00
  0.00000000E+00  0.00000000E+00  0.00000000E+00
  0.00000000E+00  0.00000000E+00  0.00000000E+00
  0.00000000E+00  0.00000000E+00  0.00000000E+00
  0.00000000E+00  0.00000000E+00  0.00000000E+00
  0.00000000E+00  0.00000000E+00  0.00000000E+00
  0.00000000E+00  0.00000000E+00  0.00000000E+00
  0.00000000E+00  0.00000000E+00  0.00000000E+00
  0.00000000E+00  0.00000000E+00  0.00000000E+00
  0.00000000E+00  0.00000000E+00  0.00000000E+00
  0.00000000E+00  0.00000000E+00  0.00000000E+00
  0.00000000E+00  0.00000000E+00  0.00000000E+00
  0.00000000E+00  0.00000000E+00  0.00000000E+00
  0.00000000E+00  0.00000000E+00  0.00000000E+00
  0.00000000E+00  0.00000000E+00  0.00000000E+00
  0.00000000E+00  0.00000000E+00  0.00000000E+00
  0.00000000E+00  0.00000000E+00  0.00000000E+00
  0.00000000E+00  0.00000000E+00  0.00000000E+00
  0.00000000E+00  0.00000000E+00  0.00000000E+00
  0.00000000E+00  0.00000000E+00  0.00000000E+00
  0.00000000E+00  0.00000000E+00  0.00000000E+00
  0.00000000E+00  0.00000000E+00  0.00000000E+00
  0.00000000E+00  0.00000000E+00  0.00000000E+00
  0.00000000E+00  0.00000000E+00  0.00000000E+00
  0.00000000E+00  0.00000000E+00  0.00000000E+00
  0.00000000E+00  0.00000000E+00  0.00000000E+00
  0.00000000E+00  0.00000000E+00  0.00000000E+00
  0.00000000E+00  0.00000000E+00  0.00000000E+00
  0.00000000E+00  0.00000000E+00  0.00000000E+00
  0.00000000E+00  0.00000000E+00  0.00000000E+00
