generated by phonopy                    
    1.004518621458711     
    51.7603607643701551   -0.0000000000000000    0.0000000000000000
     0.0000000000000000    5.0500791036360901    0.0000000000000002
    -0.0000000000000000   -2.5250395518180442    4.3734967948697969
   Co   Ru
    88    16
Direct
  0.0229364549102146  0.3333333333333286  0.1666666666666714
  0.0229364549102146  0.3333333333333286  0.6666666666666714
  0.0229364549102146  0.8333333333333286  0.1666666666666714
  0.0229364549102146  0.8333333333333286  0.6666666666666714
  0.0604753473063894  0.1666666666666714  0.3333333333333286
  0.0604753473063894  0.1666666666666714  0.8333333333333286
  0.0604753473063894  0.6666666666666714  0.3333333333333286
  0.0604753473063894  0.6666666666666714  0.8333333333333286
  0.0982502514163345  0.3333333333333286  0.1666666666666714
  0.0982502514163345  0.3333333333333286  0.6666666666666714
  0.0982502514163345  0.8333333333333286  0.1666666666666714
  0.0982502514163345  0.8333333333333286  0.6666666666666714
  0.1360026396142001  0.1666666666666714  0.3333333333333286
  0.1360026396142001  0.1666666666666714  0.8333333333333286
  0.1360026396142001  0.6666666666666714  0.3333333333333286
  0.1360026396142001  0.6666666666666714  0.8333333333333286
  0.1737880409338551  0.3333333333333286  0.1666666666666714
  0.1737880409338551  0.3333333333333286  0.6666666666666714
  0.1737880409338551  0.8333333333333286  0.1666666666666714
  0.1737880409338551  0.8333333333333286  0.6666666666666714
  0.2115405017389733  0.1666666666666714  0.3333333333333286
  0.2115405017389733  0.1666666666666714  0.8333333333333286
  0.2115405017389733  0.6666666666666714  0.3333333333333286
  0.2115405017389733  0.6666666666666714  0.8333333333333286
  0.2492920352665444  0.3333333333333286  0.1666666666666714
  0.2492920352665444  0.3333333333333286  0.6666666666666714
  0.2492920352665444  0.8333333333333286  0.1666666666666714
  0.2492920352665444  0.8333333333333286  0.6666666666666714
  0.2870751170799412  0.1666666666666714  0.3333333333333286
  0.2870751170799412  0.1666666666666714  0.8333333333333286
  0.2870751170799412  0.6666666666666714  0.3333333333333286
  0.2870751170799412  0.6666666666666714  0.8333333333333286
  0.3248261774587929  0.3333333333333286  0.1666666666666714
  0.3248261774587929  0.3333333333333286  0.6666666666666714
  0.3248261774587929  0.8333333333333286  0.1666666666666714
  0.3248261774587929  0.8333333333333286  0.6666666666666714
  0.3626008735496924  0.1666666666666714  0.3333333333333286
  0.3626008735496924  0.1666666666666714  0.8333333333333286
  0.3626008735496924  0.6666666666666714  0.3333333333333286
  0.3626008735496924  0.6666666666666714  0.8333333333333286
  0.4001389173093640  0.3333333333333286  0.1666666666666714
  0.4001389173093640  0.3333333333333286  0.6666666666666714
  0.4001389173093640  0.8333333333333286  0.1666666666666714
  0.4001389173093640  0.8333333333333286  0.6666666666666714
  0.5229364549102148  0.1666666666666714  0.3333333333333286
  0.5229364549102148  0.1666666666666714  0.8333333333333286
  0.5229364549102148  0.6666666666666714  0.3333333333333286
  0.5229364549102148  0.6666666666666714  0.8333333333333286
  0.5604753473063893  0.3333333333333286  0.1666666666666714
  0.5604753473063893  0.3333333333333286  0.6666666666666714
  0.5604753473063893  0.8333333333333286  0.1666666666666714
  0.5604753473063893  0.8333333333333286  0.6666666666666714
  0.5982502514163274  0.1666666666666714  0.3333333333333286
  0.5982502514163274  0.1666666666666714  0.8333333333333286
  0.5982502514163274  0.6666666666666714  0.3333333333333286
  0.5982502514163274  0.6666666666666714  0.8333333333333286
  0.6360026396141930  0.3333333333333286  0.1666666666666714
  0.6360026396141930  0.3333333333333286  0.6666666666666714
  0.6360026396141930  0.8333333333333286  0.1666666666666714
  0.6360026396141930  0.8333333333333286  0.6666666666666714
  0.6737880409338550  0.1666666666666714  0.3333333333333286
  0.6737880409338550  0.1666666666666714  0.8333333333333286
  0.6737880409338550  0.6666666666666714  0.3333333333333286
  0.6737880409338550  0.6666666666666714  0.8333333333333286
  0.7115405017389733  0.3333333333333286  0.1666666666666714
  0.7115405017389733  0.3333333333333286  0.6666666666666714
  0.7115405017389733  0.8333333333333286  0.1666666666666714
  0.7115405017389733  0.8333333333333286  0.6666666666666714
  0.7492920352665444  0.1666666666666714  0.3333333333333286
  0.7492920352665444  0.1666666666666714  0.8333333333333286
  0.7492920352665444  0.6666666666666714  0.3333333333333286
  0.7492920352665444  0.6666666666666714  0.8333333333333286
  0.7870751170799412  0.3333333333333286  0.1666666666666714
  0.7870751170799412  0.3333333333333286  0.6666666666666714
  0.7870751170799412  0.8333333333333286  0.1666666666666714
  0.7870751170799412  0.8333333333333286  0.6666666666666714
  0.8248261774587929  0.1666666666666714  0.3333333333333286
  0.8248261774587929  0.1666666666666714  0.8333333333333286
  0.8248261774587929  0.6666666666666714  0.3333333333333286
  0.8248261774587929  0.6666666666666714  0.8333333333333286
  0.8626008735496926  0.3333333333333286  0.1666666666666714
  0.8626008735496926  0.3333333333333286  0.6666666666666714
  0.8626008735496926  0.8333333333333286  0.1666666666666714
  0.8626008735496926  0.8333333333333286  0.6666666666666714
  0.9001389173093638  0.1666666666666714  0.3333333333333286
  0.9001389173093638  0.1666666666666714  0.8333333333333286
  0.9001389173093638  0.6666666666666714  0.3333333333333286
  0.9001389173093638  0.6666666666666714  0.8333333333333286
  0.4403460066541031  0.1666666666666714  0.3333333333333286
  0.4403460066541031  0.1666666666666714  0.8333333333333286
  0.4403460066541031  0.6666666666666714  0.3333333333333286
  0.4403460066541031  0.6666666666666714  0.8333333333333286
  0.4827276367616092  0.3333333333333286  0.1666666666666714
  0.4827276367616092  0.3333333333333286  0.6666666666666714
  0.4827276367616092  0.8333333333333286  0.1666666666666714
  0.4827276367616092  0.8333333333333286  0.6666666666666714
  0.9403460066541031  0.3333333333333286  0.1666666666666714
  0.9403460066541031  0.3333333333333286  0.6666666666666714
  0.9403460066541031  0.8333333333333286  0.1666666666666714
  0.9403460066541031  0.8333333333333286  0.6666666666666714
  0.9827276367616092  0.1666666666666714  0.3333333333333286
  0.9827276367616092  0.1666666666666714  0.8333333333333286
  0.9827276367616092  0.6666666666666714  0.3333333333333286
  0.9827276367616092  0.6666666666666714  0.8333333333333286
 
  0.00000000E+00  0.00000000E+00  0.00000000E+00
  0.00000000E+00  0.00000000E+00  0.00000000E+00
  0.00000000E+00  0.00000000E+00  0.00000000E+00
  0.00000000E+00  0.00000000E+00  0.00000000E+00
  0.00000000E+00  0.00000000E+00  0.00000000E+00
  0.00000000E+00  0.00000000E+00  0.00000000E+00
  0.00000000E+00  0.00000000E+00  0.00000000E+00
  0.00000000E+00  0.00000000E+00  0.00000000E+00
  0.00000000E+00  0.00000000E+00  0.00000000E+00
  0.00000000E+00  0.00000000E+00  0.00000000E+00
  0.00000000E+00  0.00000000E+00  0.00000000E+00
  0.00000000E+00  0.00000000E+00  0.00000000E+00
  0.00000000E+00  0.00000000E+00  0.00000000E+00
  0.00000000E+00  0.00000000E+00  0.00000000E+00
  0.00000000E+00  0.00000000E+00  0.00000000E+00
  0.00000000E+00  0.00000000E+00  0.00000000E+00
  0.00000000E+00  0.00000000E+00  0.00000000E+00
  0.00000000E+00  0.00000000E+00  0.00000000E+00
  0.00000000E+00  0.00000000E+00  0.00000000E+00
  0.00000000E+00  0.00000000E+00  0.00000000E+00
  0.00000000E+00  0.00000000E+00  0.00000000E+00
  0.00000000E+00  0.00000000E+00  0.00000000E+00
  0.00000000E+00  0.00000000E+00  0.00000000E+00
  0.00000000E+00  0.00000000E+00  0.00000000E+00
  0.00000000E+00  0.00000000E+00  0.00000000E+00
  0.00000000E+00  0.00000000E+00  0.00000000E+00
  0.00000000E+00  0.00000000E+00  0.00000000E+00
  0.00000000E+00  0.00000000E+00  0.00000000E+00
  0.00000000E+00  0.00000000E+00  0.00000000E+00
  0.00000000E+00  0.00000000E+00  0.00000000E+00
  0.00000000E+00  0.00000000E+00  0.00000000E+00
  0.00000000E+00  0.00000000E+00  0.00000000E+00
  0.00000000E+00  0.00000000E+00  0.00000000E+00
  0.00000000E+00  0.00000000E+00  0.00000000E+00
  0.00000000E+00  0.00000000E+00  0.00000000E+00
  0.00000000E+00  0.00000000E+00  0.00000000E+00
  0.00000000E+00  0.00000000E+00  0.00000000E+00
  0.00000000E+00  0.00000000E+00  0.00000000E+00
  0.00000000E+00  0.00000000E+00  0.00000000E+00
  0.00000000E+00  0.00000000E+00  0.00000000E+00
  0.00000000E+00  0.00000000E+00  0.00000000E+00
  0.00000000E+00  0.00000000E+00  0.00000000E+00
  0.00000000E+00  0.00000000E+00  0.00000000E+00
  0.00000000E+00  0.00000000E+00  0.00000000E+00
  0.00000000E+00  0.00000000E+00  0.00000000E+00
  0.00000000E+00  0.00000000E+00  0.00000000E+00
  0.00000000E+00  0.00000000E+00  0.00000000E+00
  0.00000000E+00  0.00000000E+00  0.00000000E+00
  0.00000000E+00  0.00000000E+00  0.00000000E+00
  0.00000000E+00  0.00000000E+00  0.00000000E+00
  0.00000000E+00  0.00000000E+00  0.00000000E+00
  0.00000000E+00  0.00000000E+00  0.00000000E+00
  0.00000000E+00  0.00000000E+00  0.00000000E+00
  0.00000000E+00  0.00000000E+00  0.00000000E+00
  0.00000000E+00  0.00000000E+00  0.00000000E+00
  0.00000000E+00  0.00000000E+00  0.00000000E+00
  0.00000000E+00  0.00000000E+00  0.00000000E+00
  0.00000000E+00  0.00000000E+00  0.00000000E+00
  0.00000000E+00  0.00000000E+00  0.00000000E+00
  0.00000000E+00  0.00000000E+00  0.00000000E+00
  0.00000000E+00  0.00000000E+00  0.00000000E+00
  0.00000000E+00  0.00000000E+00  0.00000000E+00
  0.00000000E+00  0.00000000E+00  0.00000000E+00
  0.00000000E+00  0.00000000E+00  0.00000000E+00
  0.00000000E+00  0.00000000E+00  0.00000000E+00
  0.00000000E+00  0.00000000E+00  0.00000000E+00
  0.00000000E+00  0.00000000E+00  0.00000000E+00
  0.00000000E+00  0.00000000E+00  0.00000000E+00
  0.00000000E+00  0.00000000E+00  0.00000000E+00
  0.00000000E+00  0.00000000E+00  0.00000000E+00
  0.00000000E+00  0.00000000E+00  0.00000000E+00
  0.00000000E+00  0.00000000E+00  0.00000000E+00
  0.00000000E+00  0.00000000E+00  0.00000000E+00
  0.00000000E+00  0.00000000E+00  0.00000000E+00
  0.00000000E+00  0.00000000E+00  0.00000000E+00
  0.00000000E+00  0.00000000E+00  0.00000000E+00
  0.00000000E+00  0.00000000E+00  0.00000000E+00
  0.00000000E+00  0.00000000E+00  0.00000000E+00
  0.00000000E+00  0.00000000E+00  0.00000000E+00
  0.00000000E+00  0.00000000E+00  0.00000000E+00
  0.00000000E+00  0.00000000E+00  0.00000000E+00
  0.00000000E+00  0.00000000E+00  0.00000000E+00
  0.00000000E+00  0.00000000E+00  0.00000000E+00
  0.00000000E+00  0.00000000E+00  0.00000000E+00
  0.00000000E+00  0.00000000E+00  0.00000000E+00
  0.00000000E+00  0.00000000E+00  0.00000000E+00
  0.00000000E+00  0.00000000E+00  0.00000000E+00
  0.00000000E+00  0.00000000E+00  0.00000000E+00
  0.00000000E+00  0.00000000E+00  0.00000000E+00
  0.00000000E+00  0.00000000E+00  0.00000000E+00
  0.00000000E+00  0.00000000E+00  0.00000000E+00
  0.00000000E+00  0.00000000E+00  0.00000000E+00
  0.00000000E+00  0.00000000E+00  0.00000000E+00
  0.00000000E+00  0.00000000E+00  0.00000000E+00
  0.00000000E+00  0.00000000E+00  0.00000000E+00
  0.00000000E+00  0.00000000E+00  0.00000000E+00
  0.00000000E+00  0.00000000E+00  0.00000000E+00
  0.00000000E+00  0.00000000E+00  0.00000000E+00
  0.00000000E+00  0.00000000E+00  0.00000000E+00
  0.00000000E+00  0.00000000E+00  0.00000000E+00
  0.00000000E+00  0.00000000E+00  0.00000000E+00
  0.00000000E+00  0.00000000E+00  0.00000000E+00
  0.00000000E+00  0.00000000E+00  0.00000000E+00
  0.00000000E+00  0.00000000E+00  0.00000000E+00
