generated by phonopy                    
   0.9999666655554934     
    32.2560874468506995    0.0000000000000000    0.0000000000000000
     0.0000000000000000    5.1766651746924222    0.0000000000000001
    -0.0000000000000000   -2.5883325873462106    4.4831235481698517
   Co   Ru
    48    16
Direct
  0.0358404305165420  0.3333333333333286  0.1666666666666714
  0.0358404305165420  0.3333333333333286  0.6666666666666714
  0.0358404305165420  0.8333333333333286  0.1666666666666714
  0.0358404305165420  0.8333333333333286  0.6666666666666714
  0.0962961940918373  0.1666666666666714  0.3333333333333286
  0.0962961940918373  0.1666666666666714  0.8333333333333286
  0.0962961940918373  0.6666666666666714  0.3333333333333286
  0.0962961940918373  0.6666666666666714  0.8333333333333286
  0.1571217060529822  0.3333333333333286  0.1666666666666714
  0.1571217060529822  0.3333333333333286  0.6666666666666714
  0.1571217060529822  0.8333333333333286  0.1666666666666714
  0.1571217060529822  0.8333333333333286  0.6666666666666714
  0.2178795343007220  0.1666666666666714  0.3333333333333286
  0.2178795343007220  0.1666666666666714  0.8333333333333286
  0.2178795343007220  0.6666666666666714  0.3333333333333286
  0.2178795343007220  0.6666666666666714  0.8333333333333286
  0.2787042564362966  0.3333333333333286  0.1666666666666714
  0.2787042564362966  0.3333333333333286  0.6666666666666714
  0.2787042564362966  0.8333333333333286  0.1666666666666714
  0.2787042564362966  0.8333333333333286  0.6666666666666714
  0.3391591866156902  0.1666666666666714  0.3333333333333286
  0.3391591866156902  0.1666666666666714  0.8333333333333286
  0.3391591866156902  0.6666666666666714  0.3333333333333286
  0.3391591866156902  0.6666666666666714  0.8333333333333286
  0.5358404305165420  0.3333333333333286  0.1666666666666714
  0.5358404305165420  0.3333333333333286  0.6666666666666714
  0.5358404305165420  0.8333333333333286  0.1666666666666714
  0.5358404305165420  0.8333333333333286  0.6666666666666714
  0.5962961940918372  0.1666666666666714  0.3333333333333286
  0.5962961940918372  0.1666666666666714  0.8333333333333286
  0.5962961940918372  0.6666666666666714  0.3333333333333286
  0.5962961940918372  0.6666666666666714  0.8333333333333286
  0.6571217060529823  0.3333333333333286  0.1666666666666714
  0.6571217060529823  0.3333333333333286  0.6666666666666714
  0.6571217060529823  0.8333333333333286  0.1666666666666714
  0.6571217060529823  0.8333333333333286  0.6666666666666714
  0.7178795343007219  0.1666666666666714  0.3333333333333286
  0.7178795343007219  0.1666666666666714  0.8333333333333286
  0.7178795343007219  0.6666666666666714  0.3333333333333286
  0.7178795343007219  0.6666666666666714  0.8333333333333286
  0.7787042564362896  0.3333333333333286  0.1666666666666714
  0.7787042564362896  0.3333333333333286  0.6666666666666714
  0.7787042564362896  0.8333333333333286  0.1666666666666714
  0.7787042564362896  0.8333333333333286  0.6666666666666714
  0.8391591866156974  0.1666666666666714  0.3333333333333286
  0.8391591866156974  0.1666666666666714  0.8333333333333286
  0.8391591866156974  0.6666666666666714  0.3333333333333286
  0.8391591866156974  0.6666666666666714  0.8333333333333286
  0.4039638507725632  0.3333333333333286  0.1666666666666714
  0.4039638507725632  0.3333333333333286  0.6666666666666714
  0.4039638507725632  0.8333333333333286  0.1666666666666714
  0.4039638507725632  0.8333333333333286  0.6666666666666714
  0.4710348412133593  0.1666666666666714  0.3333333333333286
  0.4710348412133593  0.1666666666666714  0.8333333333333286
  0.4710348412133593  0.6666666666666714  0.3333333333333286
  0.4710348412133593  0.6666666666666714  0.8333333333333286
  0.9039638507725634  0.3333333333333286  0.1666666666666714
  0.9039638507725634  0.3333333333333286  0.6666666666666714
  0.9039638507725634  0.8333333333333286  0.1666666666666714
  0.9039638507725634  0.8333333333333286  0.6666666666666714
  0.9710348412133591  0.1666666666666714  0.3333333333333286
  0.9710348412133591  0.1666666666666714  0.8333333333333286
  0.9710348412133591  0.6666666666666714  0.3333333333333286
  0.9710348412133591  0.6666666666666714  0.8333333333333286
 
  0.00000000E+00  0.00000000E+00  0.00000000E+00
  0.00000000E+00  0.00000000E+00  0.00000000E+00
  0.00000000E+00  0.00000000E+00  0.00000000E+00
  0.00000000E+00  0.00000000E+00  0.00000000E+00
  0.00000000E+00  0.00000000E+00  0.00000000E+00
  0.00000000E+00  0.00000000E+00  0.00000000E+00
  0.00000000E+00  0.00000000E+00  0.00000000E+00
  0.00000000E+00  0.00000000E+00  0.00000000E+00
  0.00000000E+00  0.00000000E+00  0.00000000E+00
  0.00000000E+00  0.00000000E+00  0.00000000E+00
  0.00000000E+00  0.00000000E+00  0.00000000E+00
  0.00000000E+00  0.00000000E+00  0.00000000E+00
  0.00000000E+00  0.00000000E+00  0.00000000E+00
  0.00000000E+00  0.00000000E+00  0.00000000E+00
  0.00000000E+00  0.00000000E+00  0.00000000E+00
  0.00000000E+00  0.00000000E+00  0.00000000E+00
  0.00000000E+00  0.00000000E+00  0.00000000E+00
  0.00000000E+00  0.00000000E+00  0.00000000E+00
  0.00000000E+00  0.00000000E+00  0.00000000E+00
  0.00000000E+00  0.00000000E+00  0.00000000E+00
  0.00000000E+00  0.00000000E+00  0.00000000E+00
  0.00000000E+00  0.00000000E+00  0.00000000E+00
  0.00000000E+00  0.00000000E+00  0.00000000E+00
  0.00000000E+00  0.00000000E+00  0.00000000E+00
  0.00000000E+00  0.00000000E+00  0.00000000E+00
  0.00000000E+00  0.00000000E+00  0.00000000E+00
  0.00000000E+00  0.00000000E+00  0.00000000E+00
  0.00000000E+00  0.00000000E+00  0.00000000E+00
  0.00000000E+00  0.00000000E+00  0.00000000E+00
  0.00000000E+00  0.00000000E+00  0.00000000E+00
  0.00000000E+00  0.00000000E+00  0.00000000E+00
  0.00000000E+00  0.00000000E+00  0.00000000E+00
  0.00000000E+00  0.00000000E+00  0.00000000E+00
  0.00000000E+00  0.00000000E+00  0.00000000E+00
  0.00000000E+00  0.00000000E+00  0.00000000E+00
  0.00000000E+00  0.00000000E+00  0.00000000E+00
  0.00000000E+00  0.00000000E+00  0.00000000E+00
  0.00000000E+00  0.00000000E+00  0.00000000E+00
  0.00000000E+00  0.00000000E+00  0.00000000E+00
  0.00000000E+00  0.00000000E+00  0.00000000E+00
  0.00000000E+00  0.00000000E+00  0.00000000E+00
  0.00000000E+00  0.00000000E+00  0.00000000E+00
  0.00000000E+00  0.00000000E+00  0.00000000E+00
  0.00000000E+00  0.00000000E+00  0.00000000E+00
  0.00000000E+00  0.00000000E+00  0.00000000E+00
  0.00000000E+00  0.00000000E+00  0.00000000E+00
  0.00000000E+00  0.00000000E+00  0.00000000E+00
  0.00000000E+00  0.00000000E+00  0.00000000E+00
  0.00000000E+00  0.00000000E+00  0.00000000E+00
  0.00000000E+00  0.00000000E+00  0.00000000E+00
  0.00000000E+00  0.00000000E+00  0.00000000E+00
  0.00000000E+00  0.00000000E+00  0.00000000E+00
  0.00000000E+00  0.00000000E+00  0.00000000E+00
  0.00000000E+00  0.00000000E+00  0.00000000E+00
  0.00000000E+00  0.00000000E+00  0.00000000E+00
  0.00000000E+00  0.00000000E+00  0.00000000E+00
  0.00000000E+00  0.00000000E+00  0.00000000E+00
  0.00000000E+00  0.00000000E+00  0.00000000E+00
  0.00000000E+00  0.00000000E+00  0.00000000E+00
  0.00000000E+00  0.00000000E+00  0.00000000E+00
  0.00000000E+00  0.00000000E+00  0.00000000E+00
  0.00000000E+00  0.00000000E+00  0.00000000E+00
  0.00000000E+00  0.00000000E+00  0.00000000E+00
  0.00000000E+00  0.00000000E+00  0.00000000E+00
