generated by phonopy                    
    1.009966995621177     
    32.2662115997543779   -0.0000000000000000    0.0000000000000000
    -0.0000000000000000    5.1758529711686760   -0.0000000000000000
     0.0000000000000000   -2.5879264855843376    4.4824201592852422
   Co   Ru
    48    16
Direct
  0.0355360236286515  0.3333333333333286  0.1666666666666714
  0.0355360236286515  0.3333333333333286  0.6666666666666714
  0.0355360236286515  0.8333333333333286  0.1666666666666714
  0.0355360236286515  0.8333333333333286  0.6666666666666714
  0.0960927667760769  0.1666666666666714  0.3333333333333286
  0.0960927667760769  0.1666666666666714  0.8333333333333286
  0.0960927667760769  0.6666666666666714  0.3333333333333286
  0.0960927667760769  0.6666666666666714  0.8333333333333286
  0.1570545007600499  0.3333333333333286  0.1666666666666714
  0.1570545007600499  0.3333333333333286  0.6666666666666714
  0.1570545007600499  0.8333333333333286  0.1666666666666714
  0.1570545007600499  0.8333333333333286  0.6666666666666714
  0.2179467395936543  0.1666666666666714  0.3333333333333286
  0.2179467395936543  0.1666666666666714  0.8333333333333286
  0.2179467395936543  0.6666666666666714  0.3333333333333286
  0.2179467395936543  0.6666666666666714  0.8333333333333286
  0.2789076837520639  0.3333333333333286  0.1666666666666714
  0.2789076837520639  0.3333333333333286  0.6666666666666714
  0.2789076837520639  0.8333333333333286  0.1666666666666714
  0.2789076837520639  0.8333333333333286  0.6666666666666714
  0.3394635935035809  0.1666666666666714  0.3333333333333286
  0.3394635935035809  0.1666666666666714  0.8333333333333286
  0.3394635935035809  0.6666666666666714  0.3333333333333286
  0.3394635935035809  0.6666666666666714  0.8333333333333286
  0.5355360236286516  0.3333333333333286  0.1666666666666714
  0.5355360236286516  0.3333333333333286  0.6666666666666714
  0.5355360236286516  0.8333333333333286  0.1666666666666714
  0.5355360236286516  0.8333333333333286  0.6666666666666714
  0.5960927667760769  0.1666666666666714  0.3333333333333286
  0.5960927667760769  0.1666666666666714  0.8333333333333286
  0.5960927667760769  0.6666666666666714  0.3333333333333286
  0.5960927667760769  0.6666666666666714  0.8333333333333286
  0.6570545007600500  0.3333333333333286  0.1666666666666714
  0.6570545007600500  0.3333333333333286  0.6666666666666714
  0.6570545007600500  0.8333333333333286  0.1666666666666714
  0.6570545007600500  0.8333333333333286  0.6666666666666714
  0.7179467395936542  0.1666666666666714  0.3333333333333286
  0.7179467395936542  0.1666666666666714  0.8333333333333286
  0.7179467395936542  0.6666666666666714  0.3333333333333286
  0.7179467395936542  0.6666666666666714  0.8333333333333286
  0.7789076837520499  0.3333333333333286  0.1666666666666714
  0.7789076837520499  0.3333333333333286  0.6666666666666714
  0.7789076837520499  0.8333333333333286  0.1666666666666714
  0.7789076837520499  0.8333333333333286  0.6666666666666714
  0.8394635935035878  0.1666666666666714  0.3333333333333286
  0.8394635935035878  0.1666666666666714  0.8333333333333286
  0.8394635935035878  0.6666666666666714  0.3333333333333286
  0.8394635935035878  0.6666666666666714  0.8333333333333286
  0.4043119727185160  0.3333333333333286  0.1666666666666714
  0.4043119727185160  0.3333333333333286  0.6666666666666714
  0.4043119727185160  0.8333333333333286  0.1666666666666714
  0.4043119727185160  0.8333333333333286  0.6666666666666714
  0.4706867192674065  0.1666666666666714  0.3333333333333286
  0.4706867192674065  0.1666666666666714  0.8333333333333286
  0.4706867192674065  0.6666666666666714  0.3333333333333286
  0.4706867192674065  0.6666666666666714  0.8333333333333286
  0.9043119727185157  0.3333333333333286  0.1666666666666714
  0.9043119727185157  0.3333333333333286  0.6666666666666714
  0.9043119727185157  0.8333333333333286  0.1666666666666714
  0.9043119727185157  0.8333333333333286  0.6666666666666714
  0.9706867192674068  0.1666666666666714  0.3333333333333286
  0.9706867192674068  0.1666666666666714  0.8333333333333286
  0.9706867192674068  0.6666666666666714  0.3333333333333286
  0.9706867192674068  0.6666666666666714  0.8333333333333286
 
  0.00000000E+00  0.00000000E+00  0.00000000E+00
  0.00000000E+00  0.00000000E+00  0.00000000E+00
  0.00000000E+00  0.00000000E+00  0.00000000E+00
  0.00000000E+00  0.00000000E+00  0.00000000E+00
  0.00000000E+00  0.00000000E+00  0.00000000E+00
  0.00000000E+00  0.00000000E+00  0.00000000E+00
  0.00000000E+00  0.00000000E+00  0.00000000E+00
  0.00000000E+00  0.00000000E+00  0.00000000E+00
  0.00000000E+00  0.00000000E+00  0.00000000E+00
  0.00000000E+00  0.00000000E+00  0.00000000E+00
  0.00000000E+00  0.00000000E+00  0.00000000E+00
  0.00000000E+00  0.00000000E+00  0.00000000E+00
  0.00000000E+00  0.00000000E+00  0.00000000E+00
  0.00000000E+00  0.00000000E+00  0.00000000E+00
  0.00000000E+00  0.00000000E+00  0.00000000E+00
  0.00000000E+00  0.00000000E+00  0.00000000E+00
  0.00000000E+00  0.00000000E+00  0.00000000E+00
  0.00000000E+00  0.00000000E+00  0.00000000E+00
  0.00000000E+00  0.00000000E+00  0.00000000E+00
  0.00000000E+00  0.00000000E+00  0.00000000E+00
  0.00000000E+00  0.00000000E+00  0.00000000E+00
  0.00000000E+00  0.00000000E+00  0.00000000E+00
  0.00000000E+00  0.00000000E+00  0.00000000E+00
  0.00000000E+00  0.00000000E+00  0.00000000E+00
  0.00000000E+00  0.00000000E+00  0.00000000E+00
  0.00000000E+00  0.00000000E+00  0.00000000E+00
  0.00000000E+00  0.00000000E+00  0.00000000E+00
  0.00000000E+00  0.00000000E+00  0.00000000E+00
  0.00000000E+00  0.00000000E+00  0.00000000E+00
  0.00000000E+00  0.00000000E+00  0.00000000E+00
  0.00000000E+00  0.00000000E+00  0.00000000E+00
  0.00000000E+00  0.00000000E+00  0.00000000E+00
  0.00000000E+00  0.00000000E+00  0.00000000E+00
  0.00000000E+00  0.00000000E+00  0.00000000E+00
  0.00000000E+00  0.00000000E+00  0.00000000E+00
  0.00000000E+00  0.00000000E+00  0.00000000E+00
  0.00000000E+00  0.00000000E+00  0.00000000E+00
  0.00000000E+00  0.00000000E+00  0.00000000E+00
  0.00000000E+00  0.00000000E+00  0.00000000E+00
  0.00000000E+00  0.00000000E+00  0.00000000E+00
  0.00000000E+00  0.00000000E+00  0.00000000E+00
  0.00000000E+00  0.00000000E+00  0.00000000E+00
  0.00000000E+00  0.00000000E+00  0.00000000E+00
  0.00000000E+00  0.00000000E+00  0.00000000E+00
  0.00000000E+00  0.00000000E+00  0.00000000E+00
  0.00000000E+00  0.00000000E+00  0.00000000E+00
  0.00000000E+00  0.00000000E+00  0.00000000E+00
  0.00000000E+00  0.00000000E+00  0.00000000E+00
  0.00000000E+00  0.00000000E+00  0.00000000E+00
  0.00000000E+00  0.00000000E+00  0.00000000E+00
  0.00000000E+00  0.00000000E+00  0.00000000E+00
  0.00000000E+00  0.00000000E+00  0.00000000E+00
  0.00000000E+00  0.00000000E+00  0.00000000E+00
  0.00000000E+00  0.00000000E+00  0.00000000E+00
  0.00000000E+00  0.00000000E+00  0.00000000E+00
  0.00000000E+00  0.00000000E+00  0.00000000E+00
  0.00000000E+00  0.00000000E+00  0.00000000E+00
  0.00000000E+00  0.00000000E+00  0.00000000E+00
  0.00000000E+00  0.00000000E+00  0.00000000E+00
  0.00000000E+00  0.00000000E+00  0.00000000E+00
  0.00000000E+00  0.00000000E+00  0.00000000E+00
  0.00000000E+00  0.00000000E+00  0.00000000E+00
  0.00000000E+00  0.00000000E+00  0.00000000E+00
  0.00000000E+00  0.00000000E+00  0.00000000E+00
