generated by phonopy                    
    1.018279826623111     
    55.6950383850575435   -0.0000000000000000    0.0000000000000000
     0.0000000000000000    5.0419838868354852    0.0000000000000001
    -0.0000000000000000   -2.5209919434177439    4.3664861314713415
   Co   Ru
    96    16
Direct
  0.0209776634300770  0.3333333333333286  0.1666666666666714
  0.0209776634300770  0.3333333333333286  0.6666666666666714
  0.0209776634300770  0.8333333333333286  0.1666666666666714
  0.0209776634300770  0.8333333333333286  0.6666666666666714
  0.0561418387992676  0.1666666666666714  0.3333333333333286
  0.0561418387992676  0.1666666666666714  0.8333333333333286
  0.0561418387992676  0.6666666666666714  0.3333333333333286
  0.0561418387992676  0.6666666666666714  0.8333333333333286
  0.0912298156540075  0.3333333333333286  0.1666666666666714
  0.0912298156540075  0.3333333333333286  0.6666666666666714
  0.0912298156540075  0.8333333333333286  0.1666666666666714
  0.0912298156540075  0.8333333333333286  0.6666666666666714
  0.1264488551689819  0.1666666666666714  0.3333333333333286
  0.1264488551689819  0.1666666666666714  0.8333333333333286
  0.1264488551689819  0.6666666666666714  0.3333333333333286
  0.1264488551689819  0.6666666666666714  0.8333333333333286
  0.1615703852819485  0.3333333333333286  0.1666666666666714
  0.1615703852819485  0.3333333333333286  0.6666666666666714
  0.1615703852819485  0.8333333333333286  0.1666666666666714
  0.1615703852819485  0.8333333333333286  0.6666666666666714
  0.1967102392098972  0.1666666666666714  0.3333333333333286
  0.1967102392098972  0.1666666666666714  0.8333333333333286
  0.1967102392098972  0.6666666666666714  0.3333333333333286
  0.1967102392098972  0.6666666666666714  0.8333333333333286
  0.2318654706313368  0.3333333333333286  0.1666666666666714
  0.2318654706313368  0.3333333333333286  0.6666666666666714
  0.2318654706313368  0.8333333333333286  0.1666666666666714
  0.2318654706313368  0.8333333333333286  0.6666666666666714
  0.2670044088469812  0.1666666666666714  0.3333333333333286
  0.2670044088469812  0.1666666666666714  0.8333333333333286
  0.2670044088469812  0.6666666666666714  0.3333333333333286
  0.2670044088469812  0.6666666666666714  0.8333333333333286
  0.3021244618142404  0.3333333333333286  0.1666666666666714
  0.3021244618142404  0.3333333333333286  0.6666666666666714
  0.3021244618142404  0.8333333333333286  0.1666666666666714
  0.3021244618142404  0.8333333333333286  0.6666666666666714
  0.3373415091926795  0.1666666666666714  0.3333333333333286
  0.3373415091926795  0.1666666666666714  0.8333333333333286
  0.3373415091926795  0.6666666666666714  0.3333333333333286
  0.3373415091926795  0.6666666666666714  0.8333333333333286
  0.3724276603687905  0.3333333333333286  0.1666666666666714
  0.3724276603687905  0.3333333333333286  0.6666666666666714
  0.3724276603687905  0.8333333333333286  0.1666666666666714
  0.3724276603687905  0.8333333333333286  0.6666666666666714
  0.4075902817785854  0.1666666666666714  0.3333333333333286
  0.4075902817785854  0.1666666666666714  0.8333333333333286
  0.4075902817785854  0.6666666666666714  0.3333333333333286
  0.4075902817785854  0.6666666666666714  0.8333333333333286
  0.5209776634300838  0.3333333333333286  0.1666666666666714
  0.5209776634300838  0.3333333333333286  0.6666666666666714
  0.5209776634300838  0.8333333333333286  0.1666666666666714
  0.5209776634300838  0.8333333333333286  0.6666666666666714
  0.5561418387992673  0.1666666666666714  0.3333333333333286
  0.5561418387992673  0.1666666666666714  0.8333333333333286
  0.5561418387992673  0.6666666666666714  0.3333333333333286
  0.5561418387992673  0.6666666666666714  0.8333333333333286
  0.5912298156540073  0.3333333333333286  0.1666666666666714
  0.5912298156540073  0.3333333333333286  0.6666666666666714
  0.5912298156540073  0.8333333333333286  0.1666666666666714
  0.5912298156540073  0.8333333333333286  0.6666666666666714
  0.6264488551689964  0.1666666666666714  0.3333333333333286
  0.6264488551689964  0.1666666666666714  0.8333333333333286
  0.6264488551689964  0.6666666666666714  0.3333333333333286
  0.6264488551689964  0.6666666666666714  0.8333333333333286
  0.6615703852819486  0.3333333333333286  0.1666666666666714
  0.6615703852819486  0.3333333333333286  0.6666666666666714
  0.6615703852819486  0.8333333333333286  0.1666666666666714
  0.6615703852819486  0.8333333333333286  0.6666666666666714
  0.6967102392099044  0.1666666666666714  0.3333333333333286
  0.6967102392099044  0.1666666666666714  0.8333333333333286
  0.6967102392099044  0.6666666666666714  0.3333333333333286
  0.6967102392099044  0.6666666666666714  0.8333333333333286
  0.7318654706313299  0.3333333333333286  0.1666666666666714
  0.7318654706313299  0.3333333333333286  0.6666666666666714
  0.7318654706313299  0.8333333333333286  0.1666666666666714
  0.7318654706313299  0.8333333333333286  0.6666666666666714
  0.7670044088469667  0.1666666666666714  0.3333333333333286
  0.7670044088469667  0.1666666666666714  0.8333333333333286
  0.7670044088469667  0.6666666666666714  0.3333333333333286
  0.7670044088469667  0.6666666666666714  0.8333333333333286
  0.8021244618142404  0.3333333333333286  0.1666666666666714
  0.8021244618142404  0.3333333333333286  0.6666666666666714
  0.8021244618142404  0.8333333333333286  0.1666666666666714
  0.8021244618142404  0.8333333333333286  0.6666666666666714
  0.8373415091926648  0.1666666666666714  0.3333333333333286
  0.8373415091926648  0.1666666666666714  0.8333333333333286
  0.8373415091926648  0.6666666666666714  0.3333333333333286
  0.8373415091926648  0.6666666666666714  0.8333333333333286
  0.8724276603687909  0.3333333333333286  0.1666666666666714
  0.8724276603687909  0.3333333333333286  0.6666666666666714
  0.8724276603687909  0.8333333333333286  0.1666666666666714
  0.8724276603687909  0.8333333333333286  0.6666666666666714
  0.9075902817785851  0.1666666666666714  0.3333333333333286
  0.9075902817785851  0.1666666666666714  0.8333333333333286
  0.9075902817785851  0.6666666666666714  0.3333333333333286
  0.9075902817785851  0.6666666666666714  0.8333333333333286
  0.4449560080581629  0.3333333333333286  0.1666666666666714
  0.4449560080581629  0.3333333333333286  0.6666666666666714
  0.4449560080581629  0.8333333333333286  0.1666666666666714
  0.4449560080581629  0.8333333333333286  0.6666666666666714
  0.4836114017650439  0.1666666666666714  0.3333333333333286
  0.4836114017650439  0.1666666666666714  0.8333333333333286
  0.4836114017650439  0.6666666666666714  0.3333333333333286
  0.4836114017650439  0.6666666666666714  0.8333333333333286
  0.9449560080581627  0.3333333333333286  0.1666666666666714
  0.9449560080581627  0.3333333333333286  0.6666666666666714
  0.9449560080581627  0.8333333333333286  0.1666666666666714
  0.9449560080581627  0.8333333333333286  0.6666666666666714
  0.9836114017650441  0.1666666666666714  0.3333333333333286
  0.9836114017650441  0.1666666666666714  0.8333333333333286
  0.9836114017650441  0.6666666666666714  0.3333333333333286
  0.9836114017650441  0.6666666666666714  0.8333333333333286
 
  0.00000000E+00  0.00000000E+00  0.00000000E+00
  0.00000000E+00  0.00000000E+00  0.00000000E+00
  0.00000000E+00  0.00000000E+00  0.00000000E+00
  0.00000000E+00  0.00000000E+00  0.00000000E+00
  0.00000000E+00  0.00000000E+00  0.00000000E+00
  0.00000000E+00  0.00000000E+00  0.00000000E+00
  0.00000000E+00  0.00000000E+00  0.00000000E+00
  0.00000000E+00  0.00000000E+00  0.00000000E+00
  0.00000000E+00  0.00000000E+00  0.00000000E+00
  0.00000000E+00  0.00000000E+00  0.00000000E+00
  0.00000000E+00  0.00000000E+00  0.00000000E+00
  0.00000000E+00  0.00000000E+00  0.00000000E+00
  0.00000000E+00  0.00000000E+00  0.00000000E+00
  0.00000000E+00  0.00000000E+00  0.00000000E+00
  0.00000000E+00  0.00000000E+00  0.00000000E+00
  0.00000000E+00  0.00000000E+00  0.00000000E+00
  0.00000000E+00  0.00000000E+00  0.00000000E+00
  0.00000000E+00  0.00000000E+00  0.00000000E+00
  0.00000000E+00  0.00000000E+00  0.00000000E+00
  0.00000000E+00  0.00000000E+00  0.00000000E+00
  0.00000000E+00  0.00000000E+00  0.00000000E+00
  0.00000000E+00  0.00000000E+00  0.00000000E+00
  0.00000000E+00  0.00000000E+00  0.00000000E+00
  0.00000000E+00  0.00000000E+00  0.00000000E+00
  0.00000000E+00  0.00000000E+00  0.00000000E+00
  0.00000000E+00  0.00000000E+00  0.00000000E+00
  0.00000000E+00  0.00000000E+00  0.00000000E+00
  0.00000000E+00  0.00000000E+00  0.00000000E+00
  0.00000000E+00  0.00000000E+00  0.00000000E+00
  0.00000000E+00  0.00000000E+00  0.00000000E+00
  0.00000000E+00  0.00000000E+00  0.00000000E+00
  0.00000000E+00  0.00000000E+00  0.00000000E+00
  0.00000000E+00  0.00000000E+00  0.00000000E+00
  0.00000000E+00  0.00000000E+00  0.00000000E+00
  0.00000000E+00  0.00000000E+00  0.00000000E+00
  0.00000000E+00  0.00000000E+00  0.00000000E+00
  0.00000000E+00  0.00000000E+00  0.00000000E+00
  0.00000000E+00  0.00000000E+00  0.00000000E+00
  0.00000000E+00  0.00000000E+00  0.00000000E+00
  0.00000000E+00  0.00000000E+00  0.00000000E+00
  0.00000000E+00  0.00000000E+00  0.00000000E+00
  0.00000000E+00  0.00000000E+00  0.00000000E+00
  0.00000000E+00  0.00000000E+00  0.00000000E+00
  0.00000000E+00  0.00000000E+00  0.00000000E+00
  0.00000000E+00  0.00000000E+00  0.00000000E+00
  0.00000000E+00  0.00000000E+00  0.00000000E+00
  0.00000000E+00  0.00000000E+00  0.00000000E+00
  0.00000000E+00  0.00000000E+00  0.00000000E+00
  0.00000000E+00  0.00000000E+00  0.00000000E+00
  0.00000000E+00  0.00000000E+00  0.00000000E+00
  0.00000000E+00  0.00000000E+00  0.00000000E+00
  0.00000000E+00  0.00000000E+00  0.00000000E+00
  0.00000000E+00  0.00000000E+00  0.00000000E+00
  0.00000000E+00  0.00000000E+00  0.00000000E+00
  0.00000000E+00  0.00000000E+00  0.00000000E+00
  0.00000000E+00  0.00000000E+00  0.00000000E+00
  0.00000000E+00  0.00000000E+00  0.00000000E+00
  0.00000000E+00  0.00000000E+00  0.00000000E+00
  0.00000000E+00  0.00000000E+00  0.00000000E+00
  0.00000000E+00  0.00000000E+00  0.00000000E+00
  0.00000000E+00  0.00000000E+00  0.00000000E+00
  0.00000000E+00  0.00000000E+00  0.00000000E+00
  0.00000000E+00  0.00000000E+00  0.00000000E+00
  0.00000000E+00  0.00000000E+00  0.00000000E+00
  0.00000000E+00  0.00000000E+00  0.00000000E+00
  0.00000000E+00  0.00000000E+00  0.00000000E+00
  0.00000000E+00  0.00000000E+00  0.00000000E+00
  0.00000000E+00  0.00000000E+00  0.00000000E+00
  0.00000000E+00  0.00000000E+00  0.00000000E+00
  0.00000000E+00  0.00000000E+00  0.00000000E+00
  0.00000000E+00  0.00000000E+00  0.00000000E+00
  0.00000000E+00  0.00000000E+00  0.00000000E+00
  0.00000000E+00  0.00000000E+00  0.00000000E+00
  0.00000000E+00  0.00000000E+00  0.00000000E+00
  0.00000000E+00  0.00000000E+00  0.00000000E+00
  0.00000000E+00  0.00000000E+00  0.00000000E+00
  0.00000000E+00  0.00000000E+00  0.00000000E+00
  0.00000000E+00  0.00000000E+00  0.00000000E+00
  0.00000000E+00  0.00000000E+00  0.00000000E+00
  0.00000000E+00  0.00000000E+00  0.00000000E+00
  0.00000000E+00  0.00000000E+00  0.00000000E+00
  0.00000000E+00  0.00000000E+00  0.00000000E+00
  0.00000000E+00  0.00000000E+00  0.00000000E+00
  0.00000000E+00  0.00000000E+00  0.00000000E+00
  0.00000000E+00  0.00000000E+00  0.00000000E+00
  0.00000000E+00  0.00000000E+00  0.00000000E+00
  0.00000000E+00  0.00000000E+00  0.00000000E+00
  0.00000000E+00  0.00000000E+00  0.00000000E+00
  0.00000000E+00  0.00000000E+00  0.00000000E+00
  0.00000000E+00  0.00000000E+00  0.00000000E+00
  0.00000000E+00  0.00000000E+00  0.00000000E+00
  0.00000000E+00  0.00000000E+00  0.00000000E+00
  0.00000000E+00  0.00000000E+00  0.00000000E+00
  0.00000000E+00  0.00000000E+00  0.00000000E+00
  0.00000000E+00  0.00000000E+00  0.00000000E+00
  0.00000000E+00  0.00000000E+00  0.00000000E+00
  0.00000000E+00  0.00000000E+00  0.00000000E+00
  0.00000000E+00  0.00000000E+00  0.00000000E+00
  0.00000000E+00  0.00000000E+00  0.00000000E+00
  0.00000000E+00  0.00000000E+00  0.00000000E+00
  0.00000000E+00  0.00000000E+00  0.00000000E+00
  0.00000000E+00  0.00000000E+00  0.00000000E+00
  0.00000000E+00  0.00000000E+00  0.00000000E+00
  0.00000000E+00  0.00000000E+00  0.00000000E+00
  0.00000000E+00  0.00000000E+00  0.00000000E+00
  0.00000000E+00  0.00000000E+00  0.00000000E+00
  0.00000000E+00  0.00000000E+00  0.00000000E+00
  0.00000000E+00  0.00000000E+00  0.00000000E+00
  0.00000000E+00  0.00000000E+00  0.00000000E+00
  0.00000000E+00  0.00000000E+00  0.00000000E+00
  0.00000000E+00  0.00000000E+00  0.00000000E+00
  0.00000000E+00  0.00000000E+00  0.00000000E+00
