generated by phonopy                    
   0.9929824289499163     
    40.3212527049556613   -0.0000000000000000    0.0000000000000000
    -0.0000000000000000    5.0774345974034061   -0.0000000000000001
     0.0000000000000000   -2.5387172987017035    4.3971873474053629
   Co   Ru
    72     8
Direct
  0.0273220163754247  0.3333333333333286  0.1666666666666714
  0.0273220163754247  0.3333333333333286  0.6666666666666714
  0.0273220163754247  0.8333333333333286  0.1666666666666714
  0.0273220163754247  0.8333333333333286  0.6666666666666714
  0.0765303397038136  0.1666666666666714  0.3333333333333286
  0.0765303397038136  0.1666666666666714  0.8333333333333286
  0.0765303397038136  0.6666666666666714  0.3333333333333286
  0.0765303397038136  0.6666666666666714  0.8333333333333286
  0.1260168638673791  0.3333333333333286  0.1666666666666714
  0.1260168638673791  0.3333333333333286  0.6666666666666714
  0.1260168638673791  0.8333333333333286  0.1666666666666714
  0.1260168638673791  0.8333333333333286  0.6666666666666714
  0.1754480768890911  0.1666666666666714  0.3333333333333286
  0.1754480768890911  0.1666666666666714  0.8333333333333286
  0.1754480768890911  0.6666666666666714  0.3333333333333286
  0.1754480768890911  0.6666666666666714  0.8333333333333286
  0.2250000000000014  0.3333333333333286  0.1666666666666714
  0.2250000000000014  0.3333333333333286  0.6666666666666714
  0.2250000000000014  0.8333333333333286  0.1666666666666714
  0.2250000000000014  0.8333333333333286  0.6666666666666714
  0.2745519231109047  0.1666666666666714  0.3333333333333286
  0.2745519231109047  0.1666666666666714  0.8333333333333286
  0.2745519231109047  0.6666666666666714  0.3333333333333286
  0.2745519231109047  0.6666666666666714  0.8333333333333286
  0.3239831361326238  0.3333333333333286  0.1666666666666714
  0.3239831361326238  0.3333333333333286  0.6666666666666714
  0.3239831361326238  0.8333333333333286  0.1666666666666714
  0.3239831361326238  0.8333333333333286  0.6666666666666714
  0.3734696602961894  0.1666666666666714  0.3333333333333286
  0.3734696602961894  0.1666666666666714  0.8333333333333286
  0.3734696602961894  0.6666666666666714  0.3333333333333286
  0.3734696602961894  0.6666666666666714  0.8333333333333286
  0.4226779836245710  0.3333333333333286  0.1666666666666714
  0.4226779836245710  0.3333333333333286  0.6666666666666714
  0.4226779836245710  0.8333333333333286  0.1666666666666714
  0.4226779836245710  0.8333333333333286  0.6666666666666714
  0.5273220163754246  0.3333333333333286  0.1666666666666714
  0.5273220163754246  0.3333333333333286  0.6666666666666714
  0.5273220163754246  0.8333333333333286  0.1666666666666714
  0.5273220163754246  0.8333333333333286  0.6666666666666714
  0.5765303397038138  0.1666666666666714  0.3333333333333286
  0.5765303397038138  0.1666666666666714  0.8333333333333286
  0.5765303397038138  0.6666666666666714  0.3333333333333286
  0.5765303397038138  0.6666666666666714  0.8333333333333286
  0.6260168638673789  0.3333333333333286  0.1666666666666714
  0.6260168638673789  0.3333333333333286  0.6666666666666714
  0.6260168638673789  0.8333333333333286  0.1666666666666714
  0.6260168638673789  0.8333333333333286  0.6666666666666714
  0.6754480768890840  0.1666666666666714  0.3333333333333286
  0.6754480768890840  0.1666666666666714  0.8333333333333286
  0.6754480768890840  0.6666666666666714  0.3333333333333286
  0.6754480768890840  0.6666666666666714  0.8333333333333286
  0.7250000000000014  0.3333333333333286  0.1666666666666714
  0.7250000000000014  0.3333333333333286  0.6666666666666714
  0.7250000000000014  0.8333333333333286  0.1666666666666714
  0.7250000000000014  0.8333333333333286  0.6666666666666714
  0.7745519231109117  0.1666666666666714  0.3333333333333286
  0.7745519231109117  0.1666666666666714  0.8333333333333286
  0.7745519231109117  0.6666666666666714  0.3333333333333286
  0.7745519231109117  0.6666666666666714  0.8333333333333286
  0.8239831361326240  0.3333333333333286  0.1666666666666714
  0.8239831361326240  0.3333333333333286  0.6666666666666714
  0.8239831361326240  0.8333333333333286  0.1666666666666714
  0.8239831361326240  0.8333333333333286  0.6666666666666714
  0.8734696602961890  0.1666666666666714  0.3333333333333286
  0.8734696602961890  0.1666666666666714  0.8333333333333286
  0.8734696602961890  0.6666666666666714  0.3333333333333286
  0.8734696602961890  0.6666666666666714  0.8333333333333286
  0.9226779836245711  0.3333333333333286  0.1666666666666714
  0.9226779836245711  0.3333333333333286  0.6666666666666714
  0.9226779836245711  0.8333333333333286  0.1666666666666714
  0.9226779836245711  0.8333333333333286  0.6666666666666714
  0.4750000000000014  0.1666666666666714  0.3333333333333286
  0.4750000000000014  0.1666666666666714  0.8333333333333286
  0.4750000000000014  0.6666666666666714  0.3333333333333286
  0.4750000000000014  0.6666666666666714  0.8333333333333286
  0.9750000000000014  0.1666666666666714  0.3333333333333286
  0.9750000000000014  0.1666666666666714  0.8333333333333286
  0.9750000000000014  0.6666666666666714  0.3333333333333286
  0.9750000000000014  0.6666666666666714  0.8333333333333286
 
  0.00000000E+00  0.00000000E+00  0.00000000E+00
  0.00000000E+00  0.00000000E+00  0.00000000E+00
  0.00000000E+00  0.00000000E+00  0.00000000E+00
  0.00000000E+00  0.00000000E+00  0.00000000E+00
  0.00000000E+00  0.00000000E+00  0.00000000E+00
  0.00000000E+00  0.00000000E+00  0.00000000E+00
  0.00000000E+00  0.00000000E+00  0.00000000E+00
  0.00000000E+00  0.00000000E+00  0.00000000E+00
  0.00000000E+00  0.00000000E+00  0.00000000E+00
  0.00000000E+00  0.00000000E+00  0.00000000E+00
  0.00000000E+00  0.00000000E+00  0.00000000E+00
  0.00000000E+00  0.00000000E+00  0.00000000E+00
  0.00000000E+00  0.00000000E+00  0.00000000E+00
  0.00000000E+00  0.00000000E+00  0.00000000E+00
  0.00000000E+00  0.00000000E+00  0.00000000E+00
  0.00000000E+00  0.00000000E+00  0.00000000E+00
  0.00000000E+00  0.00000000E+00  0.00000000E+00
  0.00000000E+00  0.00000000E+00  0.00000000E+00
  0.00000000E+00  0.00000000E+00  0.00000000E+00
  0.00000000E+00  0.00000000E+00  0.00000000E+00
  0.00000000E+00  0.00000000E+00  0.00000000E+00
  0.00000000E+00  0.00000000E+00  0.00000000E+00
  0.00000000E+00  0.00000000E+00  0.00000000E+00
  0.00000000E+00  0.00000000E+00  0.00000000E+00
  0.00000000E+00  0.00000000E+00  0.00000000E+00
  0.00000000E+00  0.00000000E+00  0.00000000E+00
  0.00000000E+00  0.00000000E+00  0.00000000E+00
  0.00000000E+00  0.00000000E+00  0.00000000E+00
  0.00000000E+00  0.00000000E+00  0.00000000E+00
  0.00000000E+00  0.00000000E+00  0.00000000E+00
  0.00000000E+00  0.00000000E+00  0.00000000E+00
  0.00000000E+00  0.00000000E+00  0.00000000E+00
  0.00000000E+00  0.00000000E+00  0.00000000E+00
  0.00000000E+00  0.00000000E+00  0.00000000E+00
  0.00000000E+00  0.00000000E+00  0.00000000E+00
  0.00000000E+00  0.00000000E+00  0.00000000E+00
  0.00000000E+00  0.00000000E+00  0.00000000E+00
  0.00000000E+00  0.00000000E+00  0.00000000E+00
  0.00000000E+00  0.00000000E+00  0.00000000E+00
  0.00000000E+00  0.00000000E+00  0.00000000E+00
  0.00000000E+00  0.00000000E+00  0.00000000E+00
  0.00000000E+00  0.00000000E+00  0.00000000E+00
  0.00000000E+00  0.00000000E+00  0.00000000E+00
  0.00000000E+00  0.00000000E+00  0.00000000E+00
  0.00000000E+00  0.00000000E+00  0.00000000E+00
  0.00000000E+00  0.00000000E+00  0.00000000E+00
  0.00000000E+00  0.00000000E+00  0.00000000E+00
  0.00000000E+00  0.00000000E+00  0.00000000E+00
  0.00000000E+00  0.00000000E+00  0.00000000E+00
  0.00000000E+00  0.00000000E+00  0.00000000E+00
  0.00000000E+00  0.00000000E+00  0.00000000E+00
  0.00000000E+00  0.00000000E+00  0.00000000E+00
  0.00000000E+00  0.00000000E+00  0.00000000E+00
  0.00000000E+00  0.00000000E+00  0.00000000E+00
  0.00000000E+00  0.00000000E+00  0.00000000E+00
  0.00000000E+00  0.00000000E+00  0.00000000E+00
  0.00000000E+00  0.00000000E+00  0.00000000E+00
  0.00000000E+00  0.00000000E+00  0.00000000E+00
  0.00000000E+00  0.00000000E+00  0.00000000E+00
  0.00000000E+00  0.00000000E+00  0.00000000E+00
  0.00000000E+00  0.00000000E+00  0.00000000E+00
  0.00000000E+00  0.00000000E+00  0.00000000E+00
  0.00000000E+00  0.00000000E+00  0.00000000E+00
  0.00000000E+00  0.00000000E+00  0.00000000E+00
  0.00000000E+00  0.00000000E+00  0.00000000E+00
  0.00000000E+00  0.00000000E+00  0.00000000E+00
  0.00000000E+00  0.00000000E+00  0.00000000E+00
  0.00000000E+00  0.00000000E+00  0.00000000E+00
  0.00000000E+00  0.00000000E+00  0.00000000E+00
  0.00000000E+00  0.00000000E+00  0.00000000E+00
  0.00000000E+00  0.00000000E+00  0.00000000E+00
  0.00000000E+00  0.00000000E+00  0.00000000E+00
  0.00000000E+00  0.00000000E+00  0.00000000E+00
  0.00000000E+00  0.00000000E+00  0.00000000E+00
  0.00000000E+00  0.00000000E+00  0.00000000E+00
  0.00000000E+00  0.00000000E+00  0.00000000E+00
  0.00000000E+00  0.00000000E+00  0.00000000E+00
  0.00000000E+00  0.00000000E+00  0.00000000E+00
  0.00000000E+00  0.00000000E+00  0.00000000E+00
  0.00000000E+00  0.00000000E+00  0.00000000E+00
