generated by phonopy                    
   1.00665560465211     
    28.4501507244991991    0.0000000000000000    0.0000000000000000
     0.0000000000000000    5.2486341034020976    0.0000000000000000
     0.0000000000000000   -2.6243170517010488    4.5454504687155719
   Co   Ru
    32    24
Direct
  0.0410965709486817  0.3333333333333286  0.1666666666666714
  0.0410965709486817  0.3333333333333286  0.6666666666666714
  0.0410965709486817  0.8333333333333286  0.1666666666666714
  0.0410965709486817  0.8333333333333286  0.6666666666666714
  0.1087305764633868  0.1666666666666714  0.3333333333333286
  0.1087305764633868  0.1666666666666714  0.8333333333333286
  0.1087305764633868  0.6666666666666714  0.3333333333333286
  0.1087305764633868  0.6666666666666714  0.8333333333333286
  0.1770363538030963  0.3333333333333286  0.1666666666666714
  0.1770363538030963  0.3333333333333286  0.6666666666666714
  0.1770363538030963  0.8333333333333286  0.1666666666666714
  0.1770363538030963  0.8333333333333286  0.6666666666666714
  0.2446307176955003  0.1666666666666714  0.3333333333333286
  0.2446307176955003  0.1666666666666714  0.8333333333333286
  0.2446307176955003  0.6666666666666714  0.3333333333333286
  0.2446307176955003  0.6666666666666714  0.8333333333333286
  0.5410965709486817  0.1666666666666714  0.3333333333333286
  0.5410965709486817  0.1666666666666714  0.8333333333333286
  0.5410965709486817  0.6666666666666714  0.3333333333333286
  0.5410965709486817  0.6666666666666714  0.8333333333333286
  0.6087305764633868  0.3333333333333286  0.1666666666666714
  0.6087305764633868  0.3333333333333286  0.6666666666666714
  0.6087305764633868  0.8333333333333286  0.1666666666666714
  0.6087305764633868  0.8333333333333286  0.6666666666666714
  0.6770363538030963  0.1666666666666714  0.3333333333333286
  0.6770363538030963  0.1666666666666714  0.8333333333333286
  0.6770363538030963  0.6666666666666714  0.3333333333333286
  0.6770363538030963  0.6666666666666714  0.8333333333333286
  0.7446307176955074  0.3333333333333286  0.1666666666666714
  0.7446307176955074  0.3333333333333286  0.6666666666666714
  0.7446307176955074  0.8333333333333286  0.1666666666666714
  0.7446307176955074  0.8333333333333286  0.6666666666666714
  0.3175340456015050  0.3333333333333286  0.1666666666666714
  0.3175340456015050  0.3333333333333286  0.6666666666666714
  0.3175340456015050  0.8333333333333286  0.1666666666666714
  0.3175340456015050  0.8333333333333286  0.6666666666666714
  0.3928314180419008  0.1666666666666714  0.3333333333333286
  0.3928314180419008  0.1666666666666714  0.8333333333333286
  0.3928314180419008  0.6666666666666714  0.3333333333333286
  0.3928314180419008  0.6666666666666714  0.8333333333333286
  0.4681403174459362  0.3333333333333286  0.1666666666666714
  0.4681403174459362  0.3333333333333286  0.6666666666666714
  0.4681403174459362  0.8333333333333286  0.1666666666666714
  0.4681403174459362  0.8333333333333286  0.6666666666666714
  0.8175340456015050  0.1666666666666714  0.3333333333333286
  0.8175340456015050  0.1666666666666714  0.8333333333333286
  0.8175340456015050  0.6666666666666714  0.3333333333333286
  0.8175340456015050  0.6666666666666714  0.8333333333333286
  0.8928314180419008  0.3333333333333286  0.1666666666666714
  0.8928314180419008  0.3333333333333286  0.6666666666666714
  0.8928314180419008  0.8333333333333286  0.1666666666666714
  0.8928314180419008  0.8333333333333286  0.6666666666666714
  0.9681403174459362  0.1666666666666714  0.3333333333333286
  0.9681403174459362  0.1666666666666714  0.8333333333333286
  0.9681403174459362  0.6666666666666714  0.3333333333333286
  0.9681403174459362  0.6666666666666714  0.8333333333333286
 
  0.00000000E+00  0.00000000E+00  0.00000000E+00
  0.00000000E+00  0.00000000E+00  0.00000000E+00
  0.00000000E+00  0.00000000E+00  0.00000000E+00
  0.00000000E+00  0.00000000E+00  0.00000000E+00
  0.00000000E+00  0.00000000E+00  0.00000000E+00
  0.00000000E+00  0.00000000E+00  0.00000000E+00
  0.00000000E+00  0.00000000E+00  0.00000000E+00
  0.00000000E+00  0.00000000E+00  0.00000000E+00
  0.00000000E+00  0.00000000E+00  0.00000000E+00
  0.00000000E+00  0.00000000E+00  0.00000000E+00
  0.00000000E+00  0.00000000E+00  0.00000000E+00
  0.00000000E+00  0.00000000E+00  0.00000000E+00
  0.00000000E+00  0.00000000E+00  0.00000000E+00
  0.00000000E+00  0.00000000E+00  0.00000000E+00
  0.00000000E+00  0.00000000E+00  0.00000000E+00
  0.00000000E+00  0.00000000E+00  0.00000000E+00
  0.00000000E+00  0.00000000E+00  0.00000000E+00
  0.00000000E+00  0.00000000E+00  0.00000000E+00
  0.00000000E+00  0.00000000E+00  0.00000000E+00
  0.00000000E+00  0.00000000E+00  0.00000000E+00
  0.00000000E+00  0.00000000E+00  0.00000000E+00
  0.00000000E+00  0.00000000E+00  0.00000000E+00
  0.00000000E+00  0.00000000E+00  0.00000000E+00
  0.00000000E+00  0.00000000E+00  0.00000000E+00
  0.00000000E+00  0.00000000E+00  0.00000000E+00
  0.00000000E+00  0.00000000E+00  0.00000000E+00
  0.00000000E+00  0.00000000E+00  0.00000000E+00
  0.00000000E+00  0.00000000E+00  0.00000000E+00
  0.00000000E+00  0.00000000E+00  0.00000000E+00
  0.00000000E+00  0.00000000E+00  0.00000000E+00
  0.00000000E+00  0.00000000E+00  0.00000000E+00
  0.00000000E+00  0.00000000E+00  0.00000000E+00
  0.00000000E+00  0.00000000E+00  0.00000000E+00
  0.00000000E+00  0.00000000E+00  0.00000000E+00
  0.00000000E+00  0.00000000E+00  0.00000000E+00
  0.00000000E+00  0.00000000E+00  0.00000000E+00
  0.00000000E+00  0.00000000E+00  0.00000000E+00
  0.00000000E+00  0.00000000E+00  0.00000000E+00
  0.00000000E+00  0.00000000E+00  0.00000000E+00
  0.00000000E+00  0.00000000E+00  0.00000000E+00
  0.00000000E+00  0.00000000E+00  0.00000000E+00
  0.00000000E+00  0.00000000E+00  0.00000000E+00
  0.00000000E+00  0.00000000E+00  0.00000000E+00
  0.00000000E+00  0.00000000E+00  0.00000000E+00
  0.00000000E+00  0.00000000E+00  0.00000000E+00
  0.00000000E+00  0.00000000E+00  0.00000000E+00
  0.00000000E+00  0.00000000E+00  0.00000000E+00
  0.00000000E+00  0.00000000E+00  0.00000000E+00
  0.00000000E+00  0.00000000E+00  0.00000000E+00
  0.00000000E+00  0.00000000E+00  0.00000000E+00
  0.00000000E+00  0.00000000E+00  0.00000000E+00
  0.00000000E+00  0.00000000E+00  0.00000000E+00
  0.00000000E+00  0.00000000E+00  0.00000000E+00
  0.00000000E+00  0.00000000E+00  0.00000000E+00
  0.00000000E+00  0.00000000E+00  0.00000000E+00
  0.00000000E+00  0.00000000E+00  0.00000000E+00
