generated by phonopy                    
  0.999899323197855     
    28.4349645635892507    0.0000000000000000   -0.0000000000000000
     0.0000000000000000    5.2500354760424361   -0.0000000000000002
    -0.0000000000000000   -2.6250177380212181    4.5466640930222750
   Co   Ru
    32    24
Direct
  0.0413008104171473  0.3333333333333286  0.1666666666666714
  0.0413008104171473  0.3333333333333286  0.6666666666666714
  0.0413008104171473  0.8333333333333286  0.1666666666666714
  0.0413008104171473  0.8333333333333286  0.6666666666666714
  0.1088261586175558  0.1666666666666714  0.3333333333333286
  0.1088261586175558  0.1666666666666714  0.8333333333333286
  0.1088261586175558  0.6666666666666714  0.3333333333333286
  0.1088261586175558  0.6666666666666714  0.8333333333333286
  0.1768930849827488  0.3333333333333286  0.1666666666666714
  0.1768930849827488  0.3333333333333286  0.6666666666666714
  0.1768930849827488  0.8333333333333286  0.1666666666666714
  0.1768930849827488  0.8333333333333286  0.6666666666666714
  0.2444145292743806  0.1666666666666714  0.3333333333333286
  0.2444145292743806  0.1666666666666714  0.8333333333333286
  0.2444145292743806  0.6666666666666714  0.3333333333333286
  0.2444145292743806  0.6666666666666714  0.8333333333333286
  0.5413008104171474  0.1666666666666714  0.3333333333333286
  0.5413008104171474  0.1666666666666714  0.8333333333333286
  0.5413008104171474  0.6666666666666714  0.3333333333333286
  0.5413008104171474  0.6666666666666714  0.8333333333333286
  0.6088261586175561  0.3333333333333286  0.1666666666666714
  0.6088261586175561  0.3333333333333286  0.6666666666666714
  0.6088261586175561  0.8333333333333286  0.1666666666666714
  0.6088261586175561  0.8333333333333286  0.6666666666666714
  0.6768930849827486  0.1666666666666714  0.3333333333333286
  0.6768930849827486  0.1666666666666714  0.8333333333333286
  0.6768930849827486  0.6666666666666714  0.3333333333333286
  0.6768930849827486  0.6666666666666714  0.8333333333333286
  0.7444145292743877  0.3333333333333286  0.1666666666666714
  0.7444145292743877  0.3333333333333286  0.6666666666666714
  0.7444145292743877  0.8333333333333286  0.1666666666666714
  0.7444145292743877  0.8333333333333286  0.6666666666666714
  0.3172095064133219  0.3333333333333286  0.1666666666666714
  0.3172095064133219  0.3333333333333286  0.6666666666666714
  0.3172095064133219  0.8333333333333286  0.1666666666666714
  0.3172095064133219  0.8333333333333286  0.6666666666666714
  0.3928547790782915  0.1666666666666714  0.3333333333333286
  0.3928547790782915  0.1666666666666714  0.8333333333333286
  0.3928547790782915  0.6666666666666714  0.3333333333333286
  0.3928547790782915  0.6666666666666714  0.8333333333333286
  0.4685011312165683  0.3333333333333286  0.1666666666666714
  0.4685011312165683  0.3333333333333286  0.6666666666666714
  0.4685011312165683  0.8333333333333286  0.1666666666666714
  0.4685011312165683  0.8333333333333286  0.6666666666666714
  0.8172095064133221  0.1666666666666714  0.3333333333333286
  0.8172095064133221  0.1666666666666714  0.8333333333333286
  0.8172095064133221  0.6666666666666714  0.3333333333333286
  0.8172095064133221  0.6666666666666714  0.8333333333333286
  0.8928547790782915  0.3333333333333286  0.1666666666666714
  0.8928547790782915  0.3333333333333286  0.6666666666666714
  0.8928547790782915  0.8333333333333286  0.1666666666666714
  0.8928547790782915  0.8333333333333286  0.6666666666666714
  0.9685011312165680  0.1666666666666714  0.3333333333333286
  0.9685011312165680  0.1666666666666714  0.8333333333333286
  0.9685011312165680  0.6666666666666714  0.3333333333333286
  0.9685011312165680  0.6666666666666714  0.8333333333333286
 
  0.00000000E+00  0.00000000E+00  0.00000000E+00
  0.00000000E+00  0.00000000E+00  0.00000000E+00
  0.00000000E+00  0.00000000E+00  0.00000000E+00
  0.00000000E+00  0.00000000E+00  0.00000000E+00
  0.00000000E+00  0.00000000E+00  0.00000000E+00
  0.00000000E+00  0.00000000E+00  0.00000000E+00
  0.00000000E+00  0.00000000E+00  0.00000000E+00
  0.00000000E+00  0.00000000E+00  0.00000000E+00
  0.00000000E+00  0.00000000E+00  0.00000000E+00
  0.00000000E+00  0.00000000E+00  0.00000000E+00
  0.00000000E+00  0.00000000E+00  0.00000000E+00
  0.00000000E+00  0.00000000E+00  0.00000000E+00
  0.00000000E+00  0.00000000E+00  0.00000000E+00
  0.00000000E+00  0.00000000E+00  0.00000000E+00
  0.00000000E+00  0.00000000E+00  0.00000000E+00
  0.00000000E+00  0.00000000E+00  0.00000000E+00
  0.00000000E+00  0.00000000E+00  0.00000000E+00
  0.00000000E+00  0.00000000E+00  0.00000000E+00
  0.00000000E+00  0.00000000E+00  0.00000000E+00
  0.00000000E+00  0.00000000E+00  0.00000000E+00
  0.00000000E+00  0.00000000E+00  0.00000000E+00
  0.00000000E+00  0.00000000E+00  0.00000000E+00
  0.00000000E+00  0.00000000E+00  0.00000000E+00
  0.00000000E+00  0.00000000E+00  0.00000000E+00
  0.00000000E+00  0.00000000E+00  0.00000000E+00
  0.00000000E+00  0.00000000E+00  0.00000000E+00
  0.00000000E+00  0.00000000E+00  0.00000000E+00
  0.00000000E+00  0.00000000E+00  0.00000000E+00
  0.00000000E+00  0.00000000E+00  0.00000000E+00
  0.00000000E+00  0.00000000E+00  0.00000000E+00
  0.00000000E+00  0.00000000E+00  0.00000000E+00
  0.00000000E+00  0.00000000E+00  0.00000000E+00
  0.00000000E+00  0.00000000E+00  0.00000000E+00
  0.00000000E+00  0.00000000E+00  0.00000000E+00
  0.00000000E+00  0.00000000E+00  0.00000000E+00
  0.00000000E+00  0.00000000E+00  0.00000000E+00
  0.00000000E+00  0.00000000E+00  0.00000000E+00
  0.00000000E+00  0.00000000E+00  0.00000000E+00
  0.00000000E+00  0.00000000E+00  0.00000000E+00
  0.00000000E+00  0.00000000E+00  0.00000000E+00
  0.00000000E+00  0.00000000E+00  0.00000000E+00
  0.00000000E+00  0.00000000E+00  0.00000000E+00
  0.00000000E+00  0.00000000E+00  0.00000000E+00
  0.00000000E+00  0.00000000E+00  0.00000000E+00
  0.00000000E+00  0.00000000E+00  0.00000000E+00
  0.00000000E+00  0.00000000E+00  0.00000000E+00
  0.00000000E+00  0.00000000E+00  0.00000000E+00
  0.00000000E+00  0.00000000E+00  0.00000000E+00
  0.00000000E+00  0.00000000E+00  0.00000000E+00
  0.00000000E+00  0.00000000E+00  0.00000000E+00
  0.00000000E+00  0.00000000E+00  0.00000000E+00
  0.00000000E+00  0.00000000E+00  0.00000000E+00
  0.00000000E+00  0.00000000E+00  0.00000000E+00
  0.00000000E+00  0.00000000E+00  0.00000000E+00
  0.00000000E+00  0.00000000E+00  0.00000000E+00
  0.00000000E+00  0.00000000E+00  0.00000000E+00
