generated by phonopy                    
    1.000000000000000     
    44.3369051756515162   -0.0000000000000000    0.0000000000000000
    -0.0000000000000000    5.0714908496521440   -0.0000000000000000
     0.0000000000000000   -2.5357454248260725    4.3920399108590882
  Co/             Ru/           
              80               8
Direct
  0.0247681003147365  0.3333333333333286  0.1666666666666714
  0.0247681003147365  0.3333333333333286  0.6666666666666714
  0.0247681003147365  0.8333333333333286  0.1666666666666714
  0.0247681003147365  0.8333333333333286  0.6666666666666714
  0.0696225836553366  0.1666666666666714  0.3333333333333286
  0.0696225836553366  0.1666666666666714  0.8333333333333286
  0.0696225836553366  0.6666666666666714  0.3333333333333286
  0.0696225836553366  0.6666666666666714  0.8333333333333286
  0.1146941177480862  0.3333333333333286  0.1666666666666714
  0.1146941177480862  0.3333333333333286  0.6666666666666714
  0.1146941177480862  0.8333333333333286  0.1666666666666714
  0.1146941177480862  0.8333333333333286  0.6666666666666714
  0.1596329566846152  0.1666666666666714  0.3333333333333286
  0.1596329566846152  0.1666666666666714  0.8333333333333286
  0.1596329566846152  0.6666666666666714  0.3333333333333286
  0.1596329566846152  0.6666666666666714  0.8333333333333286
  0.2048237451416607  0.3333333333333286  0.1666666666666714
  0.2048237451416607  0.3333333333333286  0.6666666666666714
  0.2048237451416607  0.8333333333333286  0.1666666666666714
  0.2048237451416607  0.8333333333333286  0.6666666666666714
  0.2497217094037926  0.1666666666666714  0.3333333333333286
  0.2497217094037926  0.1666666666666714  0.8333333333333286
  0.2497217094037926  0.6666666666666714  0.3333333333333286
  0.2497217094037926  0.6666666666666714  0.8333333333333286
  0.2949124978608308  0.3333333333333286  0.1666666666666714
  0.2949124978608308  0.3333333333333286  0.6666666666666714
  0.2949124978608308  0.8333333333333286  0.1666666666666714
  0.2949124978608308  0.8333333333333286  0.6666666666666714
  0.3398513367973742  0.1666666666666714  0.3333333333333286
  0.3398513367973742  0.1666666666666714  0.8333333333333286
  0.3398513367973742  0.6666666666666714  0.3333333333333286
  0.3398513367973742  0.6666666666666714  0.8333333333333286
  0.3849228708901167  0.3333333333333286  0.1666666666666714
  0.3849228708901167  0.3333333333333286  0.6666666666666714
  0.3849228708901167  0.8333333333333286  0.1666666666666714
  0.3849228708901167  0.8333333333333286  0.6666666666666714
  0.4297773542307168  0.1666666666666714  0.3333333333333286
  0.4297773542307168  0.1666666666666714  0.8333333333333286
  0.4297773542307168  0.6666666666666714  0.3333333333333286
  0.4297773542307168  0.6666666666666714  0.8333333333333286
  0.5247681003147363  0.1666666666666714  0.3333333333333286
  0.5247681003147363  0.1666666666666714  0.8333333333333286
  0.5247681003147363  0.6666666666666714  0.3333333333333286
  0.5247681003147363  0.6666666666666714  0.8333333333333286
  0.5696225836553365  0.3333333333333286  0.1666666666666714
  0.5696225836553365  0.3333333333333286  0.6666666666666714
  0.5696225836553365  0.8333333333333286  0.1666666666666714
  0.5696225836553365  0.8333333333333286  0.6666666666666714
  0.6146941177480862  0.1666666666666714  0.3333333333333286
  0.6146941177480862  0.1666666666666714  0.8333333333333286
  0.6146941177480862  0.6666666666666714  0.3333333333333286
  0.6146941177480862  0.6666666666666714  0.8333333333333286
  0.6596329566846153  0.3333333333333286  0.1666666666666714
  0.6596329566846153  0.3333333333333286  0.6666666666666714
  0.6596329566846153  0.8333333333333286  0.1666666666666714
  0.6596329566846153  0.8333333333333286  0.6666666666666714
  0.7048237451416608  0.1666666666666714  0.3333333333333286
  0.7048237451416608  0.1666666666666714  0.8333333333333286
  0.7048237451416608  0.6666666666666714  0.3333333333333286
  0.7048237451416608  0.6666666666666714  0.8333333333333286
  0.7497217094037925  0.3333333333333286  0.1666666666666714
  0.7497217094037925  0.3333333333333286  0.6666666666666714
  0.7497217094037925  0.8333333333333286  0.1666666666666714
  0.7497217094037925  0.8333333333333286  0.6666666666666714
  0.7949124978608380  0.1666666666666714  0.3333333333333286
  0.7949124978608380  0.1666666666666714  0.8333333333333286
  0.7949124978608380  0.6666666666666714  0.3333333333333286
  0.7949124978608380  0.6666666666666714  0.8333333333333286
  0.8398513367973741  0.3333333333333286  0.1666666666666714
  0.8398513367973741  0.3333333333333286  0.6666666666666714
  0.8398513367973741  0.8333333333333286  0.1666666666666714
  0.8398513367973741  0.8333333333333286  0.6666666666666714
  0.8849228708901168  0.1666666666666714  0.3333333333333286
  0.8849228708901168  0.1666666666666714  0.8333333333333286
  0.8849228708901168  0.6666666666666714  0.3333333333333286
  0.8849228708901168  0.6666666666666714  0.8333333333333286
  0.9297773542307169  0.3333333333333286  0.1666666666666714
  0.9297773542307169  0.3333333333333286  0.6666666666666714
  0.9297773542307169  0.8333333333333286  0.1666666666666714
  0.9297773542307169  0.8333333333333286  0.6666666666666714
  0.4772727272727266  0.3333333333333286  0.1666666666666714
  0.4772727272727266  0.3333333333333286  0.6666666666666714
  0.4772727272727266  0.8333333333333286  0.1666666666666714
  0.4772727272727266  0.8333333333333286  0.6666666666666714
  0.9772727272727266  0.1666666666666714  0.3333333333333286
  0.9772727272727266  0.1666666666666714  0.8333333333333286
  0.9772727272727266  0.6666666666666714  0.3333333333333286
  0.9772727272727266  0.6666666666666714  0.8333333333333286
 
  0.00000000E+00  0.00000000E+00  0.00000000E+00
  0.00000000E+00  0.00000000E+00  0.00000000E+00
  0.00000000E+00  0.00000000E+00  0.00000000E+00
  0.00000000E+00  0.00000000E+00  0.00000000E+00
  0.00000000E+00  0.00000000E+00  0.00000000E+00
  0.00000000E+00  0.00000000E+00  0.00000000E+00
  0.00000000E+00  0.00000000E+00  0.00000000E+00
  0.00000000E+00  0.00000000E+00  0.00000000E+00
  0.00000000E+00  0.00000000E+00  0.00000000E+00
  0.00000000E+00  0.00000000E+00  0.00000000E+00
  0.00000000E+00  0.00000000E+00  0.00000000E+00
  0.00000000E+00  0.00000000E+00  0.00000000E+00
  0.00000000E+00  0.00000000E+00  0.00000000E+00
  0.00000000E+00  0.00000000E+00  0.00000000E+00
  0.00000000E+00  0.00000000E+00  0.00000000E+00
  0.00000000E+00  0.00000000E+00  0.00000000E+00
  0.00000000E+00  0.00000000E+00  0.00000000E+00
  0.00000000E+00  0.00000000E+00  0.00000000E+00
  0.00000000E+00  0.00000000E+00  0.00000000E+00
  0.00000000E+00  0.00000000E+00  0.00000000E+00
  0.00000000E+00  0.00000000E+00  0.00000000E+00
  0.00000000E+00  0.00000000E+00  0.00000000E+00
  0.00000000E+00  0.00000000E+00  0.00000000E+00
  0.00000000E+00  0.00000000E+00  0.00000000E+00
  0.00000000E+00  0.00000000E+00  0.00000000E+00
  0.00000000E+00  0.00000000E+00  0.00000000E+00
  0.00000000E+00  0.00000000E+00  0.00000000E+00
  0.00000000E+00  0.00000000E+00  0.00000000E+00
  0.00000000E+00  0.00000000E+00  0.00000000E+00
  0.00000000E+00  0.00000000E+00  0.00000000E+00
  0.00000000E+00  0.00000000E+00  0.00000000E+00
  0.00000000E+00  0.00000000E+00  0.00000000E+00
  0.00000000E+00  0.00000000E+00  0.00000000E+00
  0.00000000E+00  0.00000000E+00  0.00000000E+00
  0.00000000E+00  0.00000000E+00  0.00000000E+00
  0.00000000E+00  0.00000000E+00  0.00000000E+00
  0.00000000E+00  0.00000000E+00  0.00000000E+00
  0.00000000E+00  0.00000000E+00  0.00000000E+00
  0.00000000E+00  0.00000000E+00  0.00000000E+00
  0.00000000E+00  0.00000000E+00  0.00000000E+00
  0.00000000E+00  0.00000000E+00  0.00000000E+00
  0.00000000E+00  0.00000000E+00  0.00000000E+00
  0.00000000E+00  0.00000000E+00  0.00000000E+00
  0.00000000E+00  0.00000000E+00  0.00000000E+00
  0.00000000E+00  0.00000000E+00  0.00000000E+00
  0.00000000E+00  0.00000000E+00  0.00000000E+00
  0.00000000E+00  0.00000000E+00  0.00000000E+00
  0.00000000E+00  0.00000000E+00  0.00000000E+00
  0.00000000E+00  0.00000000E+00  0.00000000E+00
  0.00000000E+00  0.00000000E+00  0.00000000E+00
  0.00000000E+00  0.00000000E+00  0.00000000E+00
  0.00000000E+00  0.00000000E+00  0.00000000E+00
  0.00000000E+00  0.00000000E+00  0.00000000E+00
  0.00000000E+00  0.00000000E+00  0.00000000E+00
  0.00000000E+00  0.00000000E+00  0.00000000E+00
  0.00000000E+00  0.00000000E+00  0.00000000E+00
  0.00000000E+00  0.00000000E+00  0.00000000E+00
  0.00000000E+00  0.00000000E+00  0.00000000E+00
  0.00000000E+00  0.00000000E+00  0.00000000E+00
  0.00000000E+00  0.00000000E+00  0.00000000E+00
  0.00000000E+00  0.00000000E+00  0.00000000E+00
  0.00000000E+00  0.00000000E+00  0.00000000E+00
  0.00000000E+00  0.00000000E+00  0.00000000E+00
  0.00000000E+00  0.00000000E+00  0.00000000E+00
  0.00000000E+00  0.00000000E+00  0.00000000E+00
  0.00000000E+00  0.00000000E+00  0.00000000E+00
  0.00000000E+00  0.00000000E+00  0.00000000E+00
  0.00000000E+00  0.00000000E+00  0.00000000E+00
  0.00000000E+00  0.00000000E+00  0.00000000E+00
  0.00000000E+00  0.00000000E+00  0.00000000E+00
  0.00000000E+00  0.00000000E+00  0.00000000E+00
  0.00000000E+00  0.00000000E+00  0.00000000E+00
  0.00000000E+00  0.00000000E+00  0.00000000E+00
  0.00000000E+00  0.00000000E+00  0.00000000E+00
  0.00000000E+00  0.00000000E+00  0.00000000E+00
  0.00000000E+00  0.00000000E+00  0.00000000E+00
  0.00000000E+00  0.00000000E+00  0.00000000E+00
  0.00000000E+00  0.00000000E+00  0.00000000E+00
  0.00000000E+00  0.00000000E+00  0.00000000E+00
  0.00000000E+00  0.00000000E+00  0.00000000E+00
  0.00000000E+00  0.00000000E+00  0.00000000E+00
  0.00000000E+00  0.00000000E+00  0.00000000E+00
  0.00000000E+00  0.00000000E+00  0.00000000E+00
  0.00000000E+00  0.00000000E+00  0.00000000E+00
  0.00000000E+00  0.00000000E+00  0.00000000E+00
  0.00000000E+00  0.00000000E+00  0.00000000E+00
  0.00000000E+00  0.00000000E+00  0.00000000E+00
  0.00000000E+00  0.00000000E+00  0.00000000E+00
