generated by phonopy                    
    1.006622709560113     
    44.3455458094159809    0.0000000000000000    0.0000000000000000
    -0.0000000000000000    5.0709967410660228    0.0000000000000001
    -0.0000000000000000   -2.5354983705330119    4.3916120002712802
   Co   Ru
    80     8
Direct
  0.0246810581821748  0.3333333333333286  0.1666666666666714
  0.0246810581821748  0.3333333333333286  0.6666666666666714
  0.0246810581821748  0.8333333333333286  0.1666666666666714
  0.0246810581821748  0.8333333333333286  0.6666666666666714
  0.0695761920280328  0.1666666666666714  0.3333333333333286
  0.0695761920280328  0.1666666666666714  0.8333333333333286
  0.0695761920280328  0.6666666666666714  0.3333333333333286
  0.0695761920280328  0.6666666666666714  0.8333333333333286
  0.1146691784005155  0.3333333333333286  0.1666666666666714
  0.1146691784005155  0.3333333333333286  0.6666666666666714
  0.1146691784005155  0.8333333333333286  0.1666666666666714
  0.1146691784005155  0.8333333333333286  0.6666666666666714
  0.1595961731075675  0.1666666666666714  0.3333333333333286
  0.1595961731075675  0.1666666666666714  0.8333333333333286
  0.1595961731075675  0.6666666666666714  0.3333333333333286
  0.1595961731075675  0.6666666666666714  0.8333333333333286
  0.2048266649515077  0.3333333333333286  0.1666666666666714
  0.2048266649515077  0.3333333333333286  0.6666666666666714
  0.2048266649515077  0.8333333333333286  0.1666666666666714
  0.2048266649515077  0.8333333333333286  0.6666666666666714
  0.2497187895939456  0.1666666666666714  0.3333333333333286
  0.2497187895939456  0.1666666666666714  0.8333333333333286
  0.2497187895939456  0.6666666666666714  0.3333333333333286
  0.2497187895939456  0.6666666666666714  0.8333333333333286
  0.2949492814378857  0.3333333333333286  0.1666666666666714
  0.2949492814378857  0.3333333333333286  0.6666666666666714
  0.2949492814378857  0.8333333333333286  0.1666666666666714
  0.2949492814378857  0.8333333333333286  0.6666666666666714
  0.3398762761449448  0.1666666666666714  0.3333333333333286
  0.3398762761449448  0.1666666666666714  0.8333333333333286
  0.3398762761449448  0.6666666666666714  0.3333333333333286
  0.3398762761449448  0.6666666666666714  0.8333333333333286
  0.3849692625174204  0.3333333333333286  0.1666666666666714
  0.3849692625174204  0.3333333333333286  0.6666666666666714
  0.3849692625174204  0.8333333333333286  0.1666666666666714
  0.3849692625174204  0.8333333333333286  0.6666666666666714
  0.4298643963632784  0.1666666666666714  0.3333333333333286
  0.4298643963632784  0.1666666666666714  0.8333333333333286
  0.4298643963632784  0.6666666666666714  0.3333333333333286
  0.4298643963632784  0.6666666666666714  0.8333333333333286
  0.5246810581821749  0.1666666666666714  0.3333333333333286
  0.5246810581821749  0.1666666666666714  0.8333333333333286
  0.5246810581821749  0.6666666666666714  0.3333333333333286
  0.5246810581821749  0.6666666666666714  0.8333333333333286
  0.5695761920280328  0.3333333333333286  0.1666666666666714
  0.5695761920280328  0.3333333333333286  0.6666666666666714
  0.5695761920280328  0.8333333333333286  0.1666666666666714
  0.5695761920280328  0.8333333333333286  0.6666666666666714
  0.6146691784005156  0.1666666666666714  0.3333333333333286
  0.6146691784005156  0.1666666666666714  0.8333333333333286
  0.6146691784005156  0.6666666666666714  0.3333333333333286
  0.6146691784005156  0.6666666666666714  0.8333333333333286
  0.6595961731075676  0.3333333333333286  0.1666666666666714
  0.6595961731075676  0.3333333333333286  0.6666666666666714
  0.6595961731075676  0.8333333333333286  0.1666666666666714
  0.6595961731075676  0.8333333333333286  0.6666666666666714
  0.7048266649515078  0.1666666666666714  0.3333333333333286
  0.7048266649515078  0.1666666666666714  0.8333333333333286
  0.7048266649515078  0.6666666666666714  0.3333333333333286
  0.7048266649515078  0.6666666666666714  0.8333333333333286
  0.7497187895939454  0.3333333333333286  0.1666666666666714
  0.7497187895939454  0.3333333333333286  0.6666666666666714
  0.7497187895939454  0.8333333333333286  0.1666666666666714
  0.7497187895939454  0.8333333333333286  0.6666666666666714
  0.7949492814378857  0.1666666666666714  0.3333333333333286
  0.7949492814378857  0.1666666666666714  0.8333333333333286
  0.7949492814378857  0.6666666666666714  0.3333333333333286
  0.7949492814378857  0.6666666666666714  0.8333333333333286
  0.8398762761449448  0.3333333333333286  0.1666666666666714
  0.8398762761449448  0.3333333333333286  0.6666666666666714
  0.8398762761449448  0.8333333333333286  0.1666666666666714
  0.8398762761449448  0.8333333333333286  0.6666666666666714
  0.8849692625174205  0.1666666666666714  0.3333333333333286
  0.8849692625174205  0.1666666666666714  0.8333333333333286
  0.8849692625174205  0.6666666666666714  0.3333333333333286
  0.8849692625174205  0.6666666666666714  0.8333333333333286
  0.9298643963632783  0.3333333333333286  0.1666666666666714
  0.9298643963632783  0.3333333333333286  0.6666666666666714
  0.9298643963632783  0.8333333333333286  0.1666666666666714
  0.9298643963632783  0.8333333333333286  0.6666666666666714
  0.4772727272727266  0.3333333333333286  0.1666666666666714
  0.4772727272727266  0.3333333333333286  0.6666666666666714
  0.4772727272727266  0.8333333333333286  0.1666666666666714
  0.4772727272727266  0.8333333333333286  0.6666666666666714
  0.9772727272727266  0.1666666666666714  0.3333333333333286
  0.9772727272727266  0.1666666666666714  0.8333333333333286
  0.9772727272727266  0.6666666666666714  0.3333333333333286
  0.9772727272727266  0.6666666666666714  0.8333333333333286
 
  0.00000000E+00  0.00000000E+00  0.00000000E+00
  0.00000000E+00  0.00000000E+00  0.00000000E+00
  0.00000000E+00  0.00000000E+00  0.00000000E+00
  0.00000000E+00  0.00000000E+00  0.00000000E+00
  0.00000000E+00  0.00000000E+00  0.00000000E+00
  0.00000000E+00  0.00000000E+00  0.00000000E+00
  0.00000000E+00  0.00000000E+00  0.00000000E+00
  0.00000000E+00  0.00000000E+00  0.00000000E+00
  0.00000000E+00  0.00000000E+00  0.00000000E+00
  0.00000000E+00  0.00000000E+00  0.00000000E+00
  0.00000000E+00  0.00000000E+00  0.00000000E+00
  0.00000000E+00  0.00000000E+00  0.00000000E+00
  0.00000000E+00  0.00000000E+00  0.00000000E+00
  0.00000000E+00  0.00000000E+00  0.00000000E+00
  0.00000000E+00  0.00000000E+00  0.00000000E+00
  0.00000000E+00  0.00000000E+00  0.00000000E+00
  0.00000000E+00  0.00000000E+00  0.00000000E+00
  0.00000000E+00  0.00000000E+00  0.00000000E+00
  0.00000000E+00  0.00000000E+00  0.00000000E+00
  0.00000000E+00  0.00000000E+00  0.00000000E+00
  0.00000000E+00  0.00000000E+00  0.00000000E+00
  0.00000000E+00  0.00000000E+00  0.00000000E+00
  0.00000000E+00  0.00000000E+00  0.00000000E+00
  0.00000000E+00  0.00000000E+00  0.00000000E+00
  0.00000000E+00  0.00000000E+00  0.00000000E+00
  0.00000000E+00  0.00000000E+00  0.00000000E+00
  0.00000000E+00  0.00000000E+00  0.00000000E+00
  0.00000000E+00  0.00000000E+00  0.00000000E+00
  0.00000000E+00  0.00000000E+00  0.00000000E+00
  0.00000000E+00  0.00000000E+00  0.00000000E+00
  0.00000000E+00  0.00000000E+00  0.00000000E+00
  0.00000000E+00  0.00000000E+00  0.00000000E+00
  0.00000000E+00  0.00000000E+00  0.00000000E+00
  0.00000000E+00  0.00000000E+00  0.00000000E+00
  0.00000000E+00  0.00000000E+00  0.00000000E+00
  0.00000000E+00  0.00000000E+00  0.00000000E+00
  0.00000000E+00  0.00000000E+00  0.00000000E+00
  0.00000000E+00  0.00000000E+00  0.00000000E+00
  0.00000000E+00  0.00000000E+00  0.00000000E+00
  0.00000000E+00  0.00000000E+00  0.00000000E+00
  0.00000000E+00  0.00000000E+00  0.00000000E+00
  0.00000000E+00  0.00000000E+00  0.00000000E+00
  0.00000000E+00  0.00000000E+00  0.00000000E+00
  0.00000000E+00  0.00000000E+00  0.00000000E+00
  0.00000000E+00  0.00000000E+00  0.00000000E+00
  0.00000000E+00  0.00000000E+00  0.00000000E+00
  0.00000000E+00  0.00000000E+00  0.00000000E+00
  0.00000000E+00  0.00000000E+00  0.00000000E+00
  0.00000000E+00  0.00000000E+00  0.00000000E+00
  0.00000000E+00  0.00000000E+00  0.00000000E+00
  0.00000000E+00  0.00000000E+00  0.00000000E+00
  0.00000000E+00  0.00000000E+00  0.00000000E+00
  0.00000000E+00  0.00000000E+00  0.00000000E+00
  0.00000000E+00  0.00000000E+00  0.00000000E+00
  0.00000000E+00  0.00000000E+00  0.00000000E+00
  0.00000000E+00  0.00000000E+00  0.00000000E+00
  0.00000000E+00  0.00000000E+00  0.00000000E+00
  0.00000000E+00  0.00000000E+00  0.00000000E+00
  0.00000000E+00  0.00000000E+00  0.00000000E+00
  0.00000000E+00  0.00000000E+00  0.00000000E+00
  0.00000000E+00  0.00000000E+00  0.00000000E+00
  0.00000000E+00  0.00000000E+00  0.00000000E+00
  0.00000000E+00  0.00000000E+00  0.00000000E+00
  0.00000000E+00  0.00000000E+00  0.00000000E+00
  0.00000000E+00  0.00000000E+00  0.00000000E+00
  0.00000000E+00  0.00000000E+00  0.00000000E+00
  0.00000000E+00  0.00000000E+00  0.00000000E+00
  0.00000000E+00  0.00000000E+00  0.00000000E+00
  0.00000000E+00  0.00000000E+00  0.00000000E+00
  0.00000000E+00  0.00000000E+00  0.00000000E+00
  0.00000000E+00  0.00000000E+00  0.00000000E+00
  0.00000000E+00  0.00000000E+00  0.00000000E+00
  0.00000000E+00  0.00000000E+00  0.00000000E+00
  0.00000000E+00  0.00000000E+00  0.00000000E+00
  0.00000000E+00  0.00000000E+00  0.00000000E+00
  0.00000000E+00  0.00000000E+00  0.00000000E+00
  0.00000000E+00  0.00000000E+00  0.00000000E+00
  0.00000000E+00  0.00000000E+00  0.00000000E+00
  0.00000000E+00  0.00000000E+00  0.00000000E+00
  0.00000000E+00  0.00000000E+00  0.00000000E+00
  0.00000000E+00  0.00000000E+00  0.00000000E+00
  0.00000000E+00  0.00000000E+00  0.00000000E+00
  0.00000000E+00  0.00000000E+00  0.00000000E+00
  0.00000000E+00  0.00000000E+00  0.00000000E+00
  0.00000000E+00  0.00000000E+00  0.00000000E+00
  0.00000000E+00  0.00000000E+00  0.00000000E+00
  0.00000000E+00  0.00000000E+00  0.00000000E+00
  0.00000000E+00  0.00000000E+00  0.00000000E+00
