generated by phonopy                    
    1.010000000000000     
    36.3768779043321615   -0.0000000000000000   -0.0000000000000000
     0.0000000000000000    5.2037268300234594    0.0000000000000000
    -0.0000000000000000   -2.6018634150117297    4.5065596291549843
   Co   Ru
    48    24
Direct
  0.0330074738263055  0.3333333333333286  0.1666666666666714
  0.0330074738263055  0.3333333333333286  0.6666666666666714
  0.0330074738263055  0.8333333333333286  0.1666666666666714
  0.0330074738263055  0.8333333333333286  0.6666666666666714
  0.0862518442690528  0.1666666666666714  0.3333333333333286
  0.0862518442690528  0.1666666666666714  0.8333333333333286
  0.0862518442690528  0.6666666666666714  0.3333333333333286
  0.0862518442690528  0.6666666666666714  0.8333333333333286
  0.1398858182417410  0.3333333333333286  0.1666666666666714
  0.1398858182417410  0.3333333333333286  0.6666666666666714
  0.1398858182417410  0.8333333333333286  0.1666666666666714
  0.1398858182417410  0.8333333333333286  0.6666666666666714
  0.1934640566650768  0.1666666666666714  0.3333333333333286
  0.1934640566650768  0.1666666666666714  0.8333333333333286
  0.1934640566650768  0.6666666666666714  0.3333333333333286
  0.1934640566650768  0.6666666666666714  0.8333333333333286
  0.2470878888683366  0.3333333333333286  0.1666666666666714
  0.2470878888683366  0.3333333333333286  0.6666666666666714
  0.2470878888683366  0.8333333333333286  0.1666666666666714
  0.2470878888683366  0.8333333333333286  0.6666666666666714
  0.3003213156384802  0.1666666666666714  0.3333333333333286
  0.3003213156384802  0.1666666666666714  0.8333333333333286
  0.3003213156384802  0.6666666666666714  0.3333333333333286
  0.3003213156384802  0.6666666666666714  0.8333333333333286
  0.5330074738263129  0.1666666666666714  0.3333333333333286
  0.5330074738263129  0.1666666666666714  0.8333333333333286
  0.5330074738263129  0.6666666666666714  0.3333333333333286
  0.5330074738263129  0.6666666666666714  0.8333333333333286
  0.5862518442690456  0.3333333333333286  0.1666666666666714
  0.5862518442690456  0.3333333333333286  0.6666666666666714
  0.5862518442690456  0.8333333333333286  0.1666666666666714
  0.5862518442690456  0.8333333333333286  0.6666666666666714
  0.6398858182417410  0.1666666666666714  0.3333333333333286
  0.6398858182417410  0.1666666666666714  0.8333333333333286
  0.6398858182417410  0.6666666666666714  0.3333333333333286
  0.6398858182417410  0.6666666666666714  0.8333333333333286
  0.6934640566650770  0.3333333333333286  0.1666666666666714
  0.6934640566650770  0.3333333333333286  0.6666666666666714
  0.6934640566650770  0.8333333333333286  0.1666666666666714
  0.6934640566650770  0.8333333333333286  0.6666666666666714
  0.7470878888683367  0.1666666666666714  0.3333333333333286
  0.7470878888683367  0.1666666666666714  0.8333333333333286
  0.7470878888683367  0.6666666666666714  0.3333333333333286
  0.7470878888683367  0.6666666666666714  0.8333333333333286
  0.8003213156384805  0.3333333333333286  0.1666666666666714
  0.8003213156384805  0.3333333333333286  0.6666666666666714
  0.8003213156384805  0.8333333333333286  0.1666666666666714
  0.8003213156384805  0.8333333333333286  0.6666666666666714
  0.3576500503412749  0.3333333333333286  0.1666666666666714
  0.3576500503412749  0.3333333333333286  0.6666666666666714
  0.3576500503412749  0.8333333333333286  0.1666666666666714
  0.3576500503412749  0.8333333333333286  0.6666666666666714
  0.4166606281211505  0.1666666666666714  0.3333333333333286
  0.4166606281211505  0.1666666666666714  0.8333333333333286
  0.4166606281211505  0.6666666666666714  0.3333333333333286
  0.4166606281211505  0.6666666666666714  0.8333333333333286
  0.4756709240285813  0.3333333333333286  0.1666666666666714
  0.4756709240285813  0.3333333333333286  0.6666666666666714
  0.4756709240285813  0.8333333333333286  0.1666666666666714
  0.4756709240285813  0.8333333333333286  0.6666666666666714
  0.8576500503412749  0.1666666666666714  0.3333333333333286
  0.8576500503412749  0.1666666666666714  0.8333333333333286
  0.8576500503412749  0.6666666666666714  0.3333333333333286
  0.8576500503412749  0.6666666666666714  0.8333333333333286
  0.9166606281211507  0.3333333333333286  0.1666666666666714
  0.9166606281211507  0.3333333333333286  0.6666666666666714
  0.9166606281211507  0.8333333333333286  0.1666666666666714
  0.9166606281211507  0.8333333333333286  0.6666666666666714
  0.9756709240285817  0.1666666666666714  0.3333333333333286
  0.9756709240285817  0.1666666666666714  0.8333333333333286
  0.9756709240285817  0.6666666666666714  0.3333333333333286
  0.9756709240285817  0.6666666666666714  0.8333333333333286
 
  0.00000000E+00  0.00000000E+00  0.00000000E+00
  0.00000000E+00  0.00000000E+00  0.00000000E+00
  0.00000000E+00  0.00000000E+00  0.00000000E+00
  0.00000000E+00  0.00000000E+00  0.00000000E+00
  0.00000000E+00  0.00000000E+00  0.00000000E+00
  0.00000000E+00  0.00000000E+00  0.00000000E+00
  0.00000000E+00  0.00000000E+00  0.00000000E+00
  0.00000000E+00  0.00000000E+00  0.00000000E+00
  0.00000000E+00  0.00000000E+00  0.00000000E+00
  0.00000000E+00  0.00000000E+00  0.00000000E+00
  0.00000000E+00  0.00000000E+00  0.00000000E+00
  0.00000000E+00  0.00000000E+00  0.00000000E+00
  0.00000000E+00  0.00000000E+00  0.00000000E+00
  0.00000000E+00  0.00000000E+00  0.00000000E+00
  0.00000000E+00  0.00000000E+00  0.00000000E+00
  0.00000000E+00  0.00000000E+00  0.00000000E+00
  0.00000000E+00  0.00000000E+00  0.00000000E+00
  0.00000000E+00  0.00000000E+00  0.00000000E+00
  0.00000000E+00  0.00000000E+00  0.00000000E+00
  0.00000000E+00  0.00000000E+00  0.00000000E+00
  0.00000000E+00  0.00000000E+00  0.00000000E+00
  0.00000000E+00  0.00000000E+00  0.00000000E+00
  0.00000000E+00  0.00000000E+00  0.00000000E+00
  0.00000000E+00  0.00000000E+00  0.00000000E+00
  0.00000000E+00  0.00000000E+00  0.00000000E+00
  0.00000000E+00  0.00000000E+00  0.00000000E+00
  0.00000000E+00  0.00000000E+00  0.00000000E+00
  0.00000000E+00  0.00000000E+00  0.00000000E+00
  0.00000000E+00  0.00000000E+00  0.00000000E+00
  0.00000000E+00  0.00000000E+00  0.00000000E+00
  0.00000000E+00  0.00000000E+00  0.00000000E+00
  0.00000000E+00  0.00000000E+00  0.00000000E+00
  0.00000000E+00  0.00000000E+00  0.00000000E+00
  0.00000000E+00  0.00000000E+00  0.00000000E+00
  0.00000000E+00  0.00000000E+00  0.00000000E+00
  0.00000000E+00  0.00000000E+00  0.00000000E+00
  0.00000000E+00  0.00000000E+00  0.00000000E+00
  0.00000000E+00  0.00000000E+00  0.00000000E+00
  0.00000000E+00  0.00000000E+00  0.00000000E+00
  0.00000000E+00  0.00000000E+00  0.00000000E+00
  0.00000000E+00  0.00000000E+00  0.00000000E+00
  0.00000000E+00  0.00000000E+00  0.00000000E+00
  0.00000000E+00  0.00000000E+00  0.00000000E+00
  0.00000000E+00  0.00000000E+00  0.00000000E+00
  0.00000000E+00  0.00000000E+00  0.00000000E+00
  0.00000000E+00  0.00000000E+00  0.00000000E+00
  0.00000000E+00  0.00000000E+00  0.00000000E+00
  0.00000000E+00  0.00000000E+00  0.00000000E+00
  0.00000000E+00  0.00000000E+00  0.00000000E+00
  0.00000000E+00  0.00000000E+00  0.00000000E+00
  0.00000000E+00  0.00000000E+00  0.00000000E+00
  0.00000000E+00  0.00000000E+00  0.00000000E+00
  0.00000000E+00  0.00000000E+00  0.00000000E+00
  0.00000000E+00  0.00000000E+00  0.00000000E+00
  0.00000000E+00  0.00000000E+00  0.00000000E+00
  0.00000000E+00  0.00000000E+00  0.00000000E+00
  0.00000000E+00  0.00000000E+00  0.00000000E+00
  0.00000000E+00  0.00000000E+00  0.00000000E+00
  0.00000000E+00  0.00000000E+00  0.00000000E+00
  0.00000000E+00  0.00000000E+00  0.00000000E+00
  0.00000000E+00  0.00000000E+00  0.00000000E+00
  0.00000000E+00  0.00000000E+00  0.00000000E+00
  0.00000000E+00  0.00000000E+00  0.00000000E+00
  0.00000000E+00  0.00000000E+00  0.00000000E+00
  0.00000000E+00  0.00000000E+00  0.00000000E+00
  0.00000000E+00  0.00000000E+00  0.00000000E+00
  0.00000000E+00  0.00000000E+00  0.00000000E+00
  0.00000000E+00  0.00000000E+00  0.00000000E+00
  0.00000000E+00  0.00000000E+00  0.00000000E+00
  0.00000000E+00  0.00000000E+00  0.00000000E+00
  0.00000000E+00  0.00000000E+00  0.00000000E+00
  0.00000000E+00  0.00000000E+00  0.00000000E+00
