generated by phonopy                    
    1.013322392348783     
    36.3888463292206694   -0.0000000000000000   -0.0000000000000000
     0.0000000000000000    5.2028709972354656   -0.0000000000000000
    -0.0000000000000000   -2.6014354986177328    4.5058184562191865
   Co   Ru
    48    24
Direct
  0.0328862358206853  0.3333333333333286  0.1666666666666714
  0.0328862358206853  0.3333333333333286  0.6666666666666714
  0.0328862358206853  0.8333333333333286  0.1666666666666714
  0.0328862358206853  0.8333333333333286  0.6666666666666714
  0.0861607983942460  0.1666666666666714  0.3333333333333286
  0.0861607983942460  0.1666666666666714  0.8333333333333286
  0.0861607983942460  0.6666666666666714  0.3333333333333286
  0.0861607983942460  0.6666666666666714  0.8333333333333286
  0.1398708199116508  0.3333333333333286  0.1666666666666714
  0.1398708199116508  0.3333333333333286  0.6666666666666714
  0.1398708199116508  0.8333333333333286  0.1666666666666714
  0.1398708199116508  0.8333333333333286  0.6666666666666714
  0.1934739453797027  0.1666666666666714  0.3333333333333286
  0.1934739453797027  0.1666666666666714  0.8333333333333286
  0.1934739453797027  0.6666666666666714  0.3333333333333286
  0.1934739453797027  0.6666666666666714  0.8333333333333286
  0.2471774803159490  0.3333333333333286  0.1666666666666714
  0.2471774803159490  0.3333333333333286  0.6666666666666714
  0.2471774803159490  0.8333333333333286  0.1666666666666714
  0.2471774803159490  0.8333333333333286  0.6666666666666714
  0.3004413655351404  0.1666666666666714  0.3333333333333286
  0.3004413655351404  0.1666666666666714  0.8333333333333286
  0.3004413655351404  0.6666666666666714  0.3333333333333286
  0.3004413655351404  0.6666666666666714  0.8333333333333286
  0.5328862358206996  0.1666666666666714  0.3333333333333286
  0.5328862358206996  0.1666666666666714  0.8333333333333286
  0.5328862358206996  0.6666666666666714  0.3333333333333286
  0.5328862358206996  0.6666666666666714  0.8333333333333286
  0.5861607983942391  0.3333333333333286  0.1666666666666714
  0.5861607983942391  0.3333333333333286  0.6666666666666714
  0.5861607983942391  0.8333333333333286  0.1666666666666714
  0.5861607983942391  0.8333333333333286  0.6666666666666714
  0.6398708199116511  0.1666666666666714  0.3333333333333286
  0.6398708199116511  0.1666666666666714  0.8333333333333286
  0.6398708199116511  0.6666666666666714  0.3333333333333286
  0.6398708199116511  0.6666666666666714  0.8333333333333286
  0.6934739453797030  0.3333333333333286  0.1666666666666714
  0.6934739453797030  0.3333333333333286  0.6666666666666714
  0.6934739453797030  0.8333333333333286  0.1666666666666714
  0.6934739453797030  0.8333333333333286  0.6666666666666714
  0.7471774803159490  0.1666666666666714  0.3333333333333286
  0.7471774803159490  0.1666666666666714  0.8333333333333286
  0.7471774803159490  0.6666666666666714  0.3333333333333286
  0.7471774803159490  0.6666666666666714  0.8333333333333286
  0.8004413655351410  0.3333333333333286  0.1666666666666714
  0.8004413655351410  0.3333333333333286  0.6666666666666714
  0.8004413655351410  0.8333333333333286  0.1666666666666714
  0.8004413655351410  0.8333333333333286  0.6666666666666714
  0.3578016999394967  0.3333333333333286  0.1666666666666714
  0.3578016999394967  0.3333333333333286  0.6666666666666714
  0.3578016999394967  0.8333333333333286  0.1666666666666714
  0.3578016999394967  0.8333333333333286  0.6666666666666714
  0.4166637760784865  0.1666666666666714  0.3333333333333286
  0.4166637760784865  0.1666666666666714  0.8333333333333286
  0.4166637760784865  0.6666666666666714  0.3333333333333286
  0.4166637760784865  0.6666666666666714  0.8333333333333286
  0.4755238786246425  0.3333333333333286  0.1666666666666714
  0.4755238786246425  0.3333333333333286  0.6666666666666714
  0.4755238786246425  0.8333333333333286  0.1666666666666714
  0.4755238786246425  0.8333333333333286  0.6666666666666714
  0.8578016999394971  0.1666666666666714  0.3333333333333286
  0.8578016999394971  0.1666666666666714  0.8333333333333286
  0.8578016999394971  0.6666666666666714  0.3333333333333286
  0.8578016999394971  0.6666666666666714  0.8333333333333286
  0.9166637760784859  0.3333333333333286  0.1666666666666714
  0.9166637760784859  0.3333333333333286  0.6666666666666714
  0.9166637760784859  0.8333333333333286  0.1666666666666714
  0.9166637760784859  0.8333333333333286  0.6666666666666714
  0.9755238786246427  0.1666666666666714  0.3333333333333286
  0.9755238786246427  0.1666666666666714  0.8333333333333286
  0.9755238786246427  0.6666666666666714  0.3333333333333286
  0.9755238786246427  0.6666666666666714  0.8333333333333286
 
  0.00000000E+00  0.00000000E+00  0.00000000E+00
  0.00000000E+00  0.00000000E+00  0.00000000E+00
  0.00000000E+00  0.00000000E+00  0.00000000E+00
  0.00000000E+00  0.00000000E+00  0.00000000E+00
  0.00000000E+00  0.00000000E+00  0.00000000E+00
  0.00000000E+00  0.00000000E+00  0.00000000E+00
  0.00000000E+00  0.00000000E+00  0.00000000E+00
  0.00000000E+00  0.00000000E+00  0.00000000E+00
  0.00000000E+00  0.00000000E+00  0.00000000E+00
  0.00000000E+00  0.00000000E+00  0.00000000E+00
  0.00000000E+00  0.00000000E+00  0.00000000E+00
  0.00000000E+00  0.00000000E+00  0.00000000E+00
  0.00000000E+00  0.00000000E+00  0.00000000E+00
  0.00000000E+00  0.00000000E+00  0.00000000E+00
  0.00000000E+00  0.00000000E+00  0.00000000E+00
  0.00000000E+00  0.00000000E+00  0.00000000E+00
  0.00000000E+00  0.00000000E+00  0.00000000E+00
  0.00000000E+00  0.00000000E+00  0.00000000E+00
  0.00000000E+00  0.00000000E+00  0.00000000E+00
  0.00000000E+00  0.00000000E+00  0.00000000E+00
  0.00000000E+00  0.00000000E+00  0.00000000E+00
  0.00000000E+00  0.00000000E+00  0.00000000E+00
  0.00000000E+00  0.00000000E+00  0.00000000E+00
  0.00000000E+00  0.00000000E+00  0.00000000E+00
  0.00000000E+00  0.00000000E+00  0.00000000E+00
  0.00000000E+00  0.00000000E+00  0.00000000E+00
  0.00000000E+00  0.00000000E+00  0.00000000E+00
  0.00000000E+00  0.00000000E+00  0.00000000E+00
  0.00000000E+00  0.00000000E+00  0.00000000E+00
  0.00000000E+00  0.00000000E+00  0.00000000E+00
  0.00000000E+00  0.00000000E+00  0.00000000E+00
  0.00000000E+00  0.00000000E+00  0.00000000E+00
  0.00000000E+00  0.00000000E+00  0.00000000E+00
  0.00000000E+00  0.00000000E+00  0.00000000E+00
  0.00000000E+00  0.00000000E+00  0.00000000E+00
  0.00000000E+00  0.00000000E+00  0.00000000E+00
  0.00000000E+00  0.00000000E+00  0.00000000E+00
  0.00000000E+00  0.00000000E+00  0.00000000E+00
  0.00000000E+00  0.00000000E+00  0.00000000E+00
  0.00000000E+00  0.00000000E+00  0.00000000E+00
  0.00000000E+00  0.00000000E+00  0.00000000E+00
  0.00000000E+00  0.00000000E+00  0.00000000E+00
  0.00000000E+00  0.00000000E+00  0.00000000E+00
  0.00000000E+00  0.00000000E+00  0.00000000E+00
  0.00000000E+00  0.00000000E+00  0.00000000E+00
  0.00000000E+00  0.00000000E+00  0.00000000E+00
  0.00000000E+00  0.00000000E+00  0.00000000E+00
  0.00000000E+00  0.00000000E+00  0.00000000E+00
  0.00000000E+00  0.00000000E+00  0.00000000E+00
  0.00000000E+00  0.00000000E+00  0.00000000E+00
  0.00000000E+00  0.00000000E+00  0.00000000E+00
  0.00000000E+00  0.00000000E+00  0.00000000E+00
  0.00000000E+00  0.00000000E+00  0.00000000E+00
  0.00000000E+00  0.00000000E+00  0.00000000E+00
  0.00000000E+00  0.00000000E+00  0.00000000E+00
  0.00000000E+00  0.00000000E+00  0.00000000E+00
  0.00000000E+00  0.00000000E+00  0.00000000E+00
  0.00000000E+00  0.00000000E+00  0.00000000E+00
  0.00000000E+00  0.00000000E+00  0.00000000E+00
  0.00000000E+00  0.00000000E+00  0.00000000E+00
  0.00000000E+00  0.00000000E+00  0.00000000E+00
  0.00000000E+00  0.00000000E+00  0.00000000E+00
  0.00000000E+00  0.00000000E+00  0.00000000E+00
  0.00000000E+00  0.00000000E+00  0.00000000E+00
  0.00000000E+00  0.00000000E+00  0.00000000E+00
  0.00000000E+00  0.00000000E+00  0.00000000E+00
  0.00000000E+00  0.00000000E+00  0.00000000E+00
  0.00000000E+00  0.00000000E+00  0.00000000E+00
  0.00000000E+00  0.00000000E+00  0.00000000E+00
  0.00000000E+00  0.00000000E+00  0.00000000E+00
  0.00000000E+00  0.00000000E+00  0.00000000E+00
  0.00000000E+00  0.00000000E+00  0.00000000E+00
