generated by phonopy                    
   0.9932883883792687     
    36.3107964582924723   -0.0000000000000000   -0.0000000000000000
     0.0000000000000000    5.0824670305411006    0.0000000000000001
    -0.0000000000000000   -2.5412335152705503    4.4015455623454551
   Co   Ru
    64     8
Direct
  0.0303738590508717  0.3333333333333286  0.1666666666666714
  0.0303738590508717  0.3333333333333286  0.6666666666666714
  0.0303738590508717  0.8333333333333286  0.1666666666666714
  0.0303738590508717  0.8333333333333286  0.6666666666666714
  0.0849865038611461  0.1666666666666714  0.3333333333333286
  0.0849865038611461  0.1666666666666714  0.8333333333333286
  0.0849865038611461  0.6666666666666714  0.3333333333333286
  0.0849865038611461  0.6666666666666714  0.8333333333333286
  0.1398032281600060  0.3333333333333286  0.1666666666666714
  0.1398032281600060  0.3333333333333286  0.6666666666666714
  0.1398032281600060  0.8333333333333286  0.1666666666666714
  0.1398032281600060  0.8333333333333286  0.6666666666666714
  0.1947748754058051  0.1666666666666714  0.3333333333333286
  0.1947748754058051  0.1666666666666714  0.8333333333333286
  0.1947748754058051  0.6666666666666714  0.3333333333333286
  0.1947748754058051  0.6666666666666714  0.8333333333333286
  0.2496695690386378  0.3333333333333286  0.1666666666666714
  0.2496695690386378  0.3333333333333286  0.6666666666666714
  0.2496695690386378  0.8333333333333286  0.1666666666666714
  0.2496695690386378  0.8333333333333286  0.6666666666666714
  0.3046412162844368  0.1666666666666714  0.3333333333333286
  0.3046412162844368  0.1666666666666714  0.8333333333333286
  0.3046412162844368  0.6666666666666714  0.3333333333333286
  0.3046412162844368  0.6666666666666714  0.8333333333333286
  0.3594579405833040  0.3333333333333286  0.1666666666666714
  0.3594579405833040  0.3333333333333286  0.6666666666666714
  0.3594579405833040  0.8333333333333286  0.1666666666666714
  0.3594579405833040  0.8333333333333286  0.6666666666666714
  0.4140705853935641  0.1666666666666714  0.3333333333333286
  0.4140705853935641  0.1666666666666714  0.8333333333333286
  0.4140705853935641  0.6666666666666714  0.3333333333333286
  0.4140705853935641  0.6666666666666714  0.8333333333333286
  0.5303738590508787  0.1666666666666714  0.3333333333333286
  0.5303738590508787  0.1666666666666714  0.8333333333333286
  0.5303738590508787  0.6666666666666714  0.3333333333333286
  0.5303738590508787  0.6666666666666714  0.8333333333333286
  0.5849865038611461  0.3333333333333286  0.1666666666666714
  0.5849865038611461  0.3333333333333286  0.6666666666666714
  0.5849865038611461  0.8333333333333286  0.1666666666666714
  0.5849865038611461  0.8333333333333286  0.6666666666666714
  0.6398032281600060  0.1666666666666714  0.3333333333333286
  0.6398032281600060  0.1666666666666714  0.8333333333333286
  0.6398032281600060  0.6666666666666714  0.3333333333333286
  0.6398032281600060  0.6666666666666714  0.8333333333333286
  0.6947748754058050  0.3333333333333286  0.1666666666666714
  0.6947748754058050  0.3333333333333286  0.6666666666666714
  0.6947748754058050  0.8333333333333286  0.1666666666666714
  0.6947748754058050  0.8333333333333286  0.6666666666666714
  0.7496695690386379  0.1666666666666714  0.3333333333333286
  0.7496695690386379  0.1666666666666714  0.8333333333333286
  0.7496695690386379  0.6666666666666714  0.3333333333333286
  0.7496695690386379  0.6666666666666714  0.8333333333333286
  0.8046412162844369  0.3333333333333286  0.1666666666666714
  0.8046412162844369  0.3333333333333286  0.6666666666666714
  0.8046412162844369  0.8333333333333286  0.1666666666666714
  0.8046412162844369  0.8333333333333286  0.6666666666666714
  0.8594579405833038  0.1666666666666714  0.3333333333333286
  0.8594579405833038  0.1666666666666714  0.8333333333333286
  0.8594579405833038  0.6666666666666714  0.3333333333333286
  0.8594579405833038  0.6666666666666714  0.8333333333333286
  0.9140705853935641  0.3333333333333286  0.1666666666666714
  0.9140705853935641  0.3333333333333286  0.6666666666666714
  0.9140705853935641  0.8333333333333286  0.1666666666666714
  0.9140705853935641  0.8333333333333286  0.6666666666666714
  0.4722222222222214  0.3333333333333286  0.1666666666666714
  0.4722222222222214  0.3333333333333286  0.6666666666666714
  0.4722222222222214  0.8333333333333286  0.1666666666666714
  0.4722222222222214  0.8333333333333286  0.6666666666666714
  0.9722222222222214  0.1666666666666714  0.3333333333333286
  0.9722222222222214  0.1666666666666714  0.8333333333333286
  0.9722222222222214  0.6666666666666714  0.3333333333333286
  0.9722222222222214  0.6666666666666714  0.8333333333333286
 
  0.00000000E+00  0.00000000E+00  0.00000000E+00
  0.00000000E+00  0.00000000E+00  0.00000000E+00
  0.00000000E+00  0.00000000E+00  0.00000000E+00
  0.00000000E+00  0.00000000E+00  0.00000000E+00
  0.00000000E+00  0.00000000E+00  0.00000000E+00
  0.00000000E+00  0.00000000E+00  0.00000000E+00
  0.00000000E+00  0.00000000E+00  0.00000000E+00
  0.00000000E+00  0.00000000E+00  0.00000000E+00
  0.00000000E+00  0.00000000E+00  0.00000000E+00
  0.00000000E+00  0.00000000E+00  0.00000000E+00
  0.00000000E+00  0.00000000E+00  0.00000000E+00
  0.00000000E+00  0.00000000E+00  0.00000000E+00
  0.00000000E+00  0.00000000E+00  0.00000000E+00
  0.00000000E+00  0.00000000E+00  0.00000000E+00
  0.00000000E+00  0.00000000E+00  0.00000000E+00
  0.00000000E+00  0.00000000E+00  0.00000000E+00
  0.00000000E+00  0.00000000E+00  0.00000000E+00
  0.00000000E+00  0.00000000E+00  0.00000000E+00
  0.00000000E+00  0.00000000E+00  0.00000000E+00
  0.00000000E+00  0.00000000E+00  0.00000000E+00
  0.00000000E+00  0.00000000E+00  0.00000000E+00
  0.00000000E+00  0.00000000E+00  0.00000000E+00
  0.00000000E+00  0.00000000E+00  0.00000000E+00
  0.00000000E+00  0.00000000E+00  0.00000000E+00
  0.00000000E+00  0.00000000E+00  0.00000000E+00
  0.00000000E+00  0.00000000E+00  0.00000000E+00
  0.00000000E+00  0.00000000E+00  0.00000000E+00
  0.00000000E+00  0.00000000E+00  0.00000000E+00
  0.00000000E+00  0.00000000E+00  0.00000000E+00
  0.00000000E+00  0.00000000E+00  0.00000000E+00
  0.00000000E+00  0.00000000E+00  0.00000000E+00
  0.00000000E+00  0.00000000E+00  0.00000000E+00
  0.00000000E+00  0.00000000E+00  0.00000000E+00
  0.00000000E+00  0.00000000E+00  0.00000000E+00
  0.00000000E+00  0.00000000E+00  0.00000000E+00
  0.00000000E+00  0.00000000E+00  0.00000000E+00
  0.00000000E+00  0.00000000E+00  0.00000000E+00
  0.00000000E+00  0.00000000E+00  0.00000000E+00
  0.00000000E+00  0.00000000E+00  0.00000000E+00
  0.00000000E+00  0.00000000E+00  0.00000000E+00
  0.00000000E+00  0.00000000E+00  0.00000000E+00
  0.00000000E+00  0.00000000E+00  0.00000000E+00
  0.00000000E+00  0.00000000E+00  0.00000000E+00
  0.00000000E+00  0.00000000E+00  0.00000000E+00
  0.00000000E+00  0.00000000E+00  0.00000000E+00
  0.00000000E+00  0.00000000E+00  0.00000000E+00
  0.00000000E+00  0.00000000E+00  0.00000000E+00
  0.00000000E+00  0.00000000E+00  0.00000000E+00
  0.00000000E+00  0.00000000E+00  0.00000000E+00
  0.00000000E+00  0.00000000E+00  0.00000000E+00
  0.00000000E+00  0.00000000E+00  0.00000000E+00
  0.00000000E+00  0.00000000E+00  0.00000000E+00
  0.00000000E+00  0.00000000E+00  0.00000000E+00
  0.00000000E+00  0.00000000E+00  0.00000000E+00
  0.00000000E+00  0.00000000E+00  0.00000000E+00
  0.00000000E+00  0.00000000E+00  0.00000000E+00
  0.00000000E+00  0.00000000E+00  0.00000000E+00
  0.00000000E+00  0.00000000E+00  0.00000000E+00
  0.00000000E+00  0.00000000E+00  0.00000000E+00
  0.00000000E+00  0.00000000E+00  0.00000000E+00
  0.00000000E+00  0.00000000E+00  0.00000000E+00
  0.00000000E+00  0.00000000E+00  0.00000000E+00
  0.00000000E+00  0.00000000E+00  0.00000000E+00
  0.00000000E+00  0.00000000E+00  0.00000000E+00
  0.00000000E+00  0.00000000E+00  0.00000000E+00
  0.00000000E+00  0.00000000E+00  0.00000000E+00
  0.00000000E+00  0.00000000E+00  0.00000000E+00
  0.00000000E+00  0.00000000E+00  0.00000000E+00
  0.00000000E+00  0.00000000E+00  0.00000000E+00
  0.00000000E+00  0.00000000E+00  0.00000000E+00
  0.00000000E+00  0.00000000E+00  0.00000000E+00
  0.00000000E+00  0.00000000E+00  0.00000000E+00
