generated by phonopy                    
    1.006622709560113     
    36.3143905867902390   -0.0000000000000000    0.0000000000000000
    -0.0000000000000000    5.0822155119102694    0.0000000000000001
     0.0000000000000000   -2.5411077559551347    4.4013277408216309
   Co   Ru
    64     8
Direct
  0.0302357204795988  0.3333333333333286  0.1666666666666714
  0.0302357204795988  0.3333333333333286  0.6666666666666714
  0.0302357204795988  0.8333333333333286  0.1666666666666714
  0.0302357204795988  0.8333333333333286  0.6666666666666714
  0.0849046864267771  0.1666666666666714  0.3333333333333286
  0.0849046864267771  0.1666666666666714  0.8333333333333286
  0.0849046864267771  0.6666666666666714  0.3333333333333286
  0.0849046864267771  0.6666666666666714  0.8333333333333286
  0.1398180033109697  0.3333333333333286  0.1666666666666714
  0.1398180033109697  0.3333333333333286  0.6666666666666714
  0.1398180033109697  0.8333333333333286  0.1666666666666714
  0.1398180033109697  0.8333333333333286  0.6666666666666714
  0.1947562618070947  0.1666666666666714  0.3333333333333286
  0.1947562618070947  0.1666666666666714  0.8333333333333286
  0.1947562618070947  0.6666666666666714  0.3333333333333286
  0.1947562618070947  0.6666666666666714  0.8333333333333286
  0.2496881826373482  0.3333333333333286  0.1666666666666714
  0.2496881826373482  0.3333333333333286  0.6666666666666714
  0.2496881826373482  0.8333333333333286  0.1666666666666714
  0.2496881826373482  0.8333333333333286  0.6666666666666714
  0.3046264411334732  0.1666666666666714  0.3333333333333286
  0.3046264411334732  0.1666666666666714  0.8333333333333286
  0.3046264411334732  0.6666666666666714  0.3333333333333286
  0.3046264411334732  0.6666666666666714  0.8333333333333286
  0.3595397580176730  0.3333333333333286  0.1666666666666714
  0.3595397580176730  0.3333333333333286  0.6666666666666714
  0.3595397580176730  0.8333333333333286  0.1666666666666714
  0.3595397580176730  0.8333333333333286  0.6666666666666714
  0.4142087239648369  0.1666666666666714  0.3333333333333286
  0.4142087239648369  0.1666666666666714  0.8333333333333286
  0.4142087239648369  0.6666666666666714  0.3333333333333286
  0.4142087239648369  0.6666666666666714  0.8333333333333286
  0.5302357204796057  0.1666666666666714  0.3333333333333286
  0.5302357204796057  0.1666666666666714  0.8333333333333286
  0.5302357204796057  0.6666666666666714  0.3333333333333286
  0.5302357204796057  0.6666666666666714  0.8333333333333286
  0.5849046864267772  0.3333333333333286  0.1666666666666714
  0.5849046864267772  0.3333333333333286  0.6666666666666714
  0.5849046864267772  0.8333333333333286  0.1666666666666714
  0.5849046864267772  0.8333333333333286  0.6666666666666714
  0.6398180033109698  0.1666666666666714  0.3333333333333286
  0.6398180033109698  0.1666666666666714  0.8333333333333286
  0.6398180033109698  0.6666666666666714  0.3333333333333286
  0.6398180033109698  0.6666666666666714  0.8333333333333286
  0.6947562618070946  0.3333333333333286  0.1666666666666714
  0.6947562618070946  0.3333333333333286  0.6666666666666714
  0.6947562618070946  0.8333333333333286  0.1666666666666714
  0.6947562618070946  0.8333333333333286  0.6666666666666714
  0.7496881826373483  0.1666666666666714  0.3333333333333286
  0.7496881826373483  0.1666666666666714  0.8333333333333286
  0.7496881826373483  0.6666666666666714  0.3333333333333286
  0.7496881826373483  0.6666666666666714  0.8333333333333286
  0.8046264411334730  0.3333333333333286  0.1666666666666714
  0.8046264411334730  0.3333333333333286  0.6666666666666714
  0.8046264411334730  0.8333333333333286  0.1666666666666714
  0.8046264411334730  0.8333333333333286  0.6666666666666714
  0.8595397580176728  0.1666666666666714  0.3333333333333286
  0.8595397580176728  0.1666666666666714  0.8333333333333286
  0.8595397580176728  0.6666666666666714  0.3333333333333286
  0.8595397580176728  0.6666666666666714  0.8333333333333286
  0.9142087239648372  0.3333333333333286  0.1666666666666714
  0.9142087239648372  0.3333333333333286  0.6666666666666714
  0.9142087239648372  0.8333333333333286  0.1666666666666714
  0.9142087239648372  0.8333333333333286  0.6666666666666714
  0.4722222222222214  0.3333333333333286  0.1666666666666714
  0.4722222222222214  0.3333333333333286  0.6666666666666714
  0.4722222222222214  0.8333333333333286  0.1666666666666714
  0.4722222222222214  0.8333333333333286  0.6666666666666714
  0.9722222222222214  0.1666666666666714  0.3333333333333286
  0.9722222222222214  0.1666666666666714  0.8333333333333286
  0.9722222222222214  0.6666666666666714  0.3333333333333286
  0.9722222222222214  0.6666666666666714  0.8333333333333286
 
  0.00000000E+00  0.00000000E+00  0.00000000E+00
  0.00000000E+00  0.00000000E+00  0.00000000E+00
  0.00000000E+00  0.00000000E+00  0.00000000E+00
  0.00000000E+00  0.00000000E+00  0.00000000E+00
  0.00000000E+00  0.00000000E+00  0.00000000E+00
  0.00000000E+00  0.00000000E+00  0.00000000E+00
  0.00000000E+00  0.00000000E+00  0.00000000E+00
  0.00000000E+00  0.00000000E+00  0.00000000E+00
  0.00000000E+00  0.00000000E+00  0.00000000E+00
  0.00000000E+00  0.00000000E+00  0.00000000E+00
  0.00000000E+00  0.00000000E+00  0.00000000E+00
  0.00000000E+00  0.00000000E+00  0.00000000E+00
  0.00000000E+00  0.00000000E+00  0.00000000E+00
  0.00000000E+00  0.00000000E+00  0.00000000E+00
  0.00000000E+00  0.00000000E+00  0.00000000E+00
  0.00000000E+00  0.00000000E+00  0.00000000E+00
  0.00000000E+00  0.00000000E+00  0.00000000E+00
  0.00000000E+00  0.00000000E+00  0.00000000E+00
  0.00000000E+00  0.00000000E+00  0.00000000E+00
  0.00000000E+00  0.00000000E+00  0.00000000E+00
  0.00000000E+00  0.00000000E+00  0.00000000E+00
  0.00000000E+00  0.00000000E+00  0.00000000E+00
  0.00000000E+00  0.00000000E+00  0.00000000E+00
  0.00000000E+00  0.00000000E+00  0.00000000E+00
  0.00000000E+00  0.00000000E+00  0.00000000E+00
  0.00000000E+00  0.00000000E+00  0.00000000E+00
  0.00000000E+00  0.00000000E+00  0.00000000E+00
  0.00000000E+00  0.00000000E+00  0.00000000E+00
  0.00000000E+00  0.00000000E+00  0.00000000E+00
  0.00000000E+00  0.00000000E+00  0.00000000E+00
  0.00000000E+00  0.00000000E+00  0.00000000E+00
  0.00000000E+00  0.00000000E+00  0.00000000E+00
  0.00000000E+00  0.00000000E+00  0.00000000E+00
  0.00000000E+00  0.00000000E+00  0.00000000E+00
  0.00000000E+00  0.00000000E+00  0.00000000E+00
  0.00000000E+00  0.00000000E+00  0.00000000E+00
  0.00000000E+00  0.00000000E+00  0.00000000E+00
  0.00000000E+00  0.00000000E+00  0.00000000E+00
  0.00000000E+00  0.00000000E+00  0.00000000E+00
  0.00000000E+00  0.00000000E+00  0.00000000E+00
  0.00000000E+00  0.00000000E+00  0.00000000E+00
  0.00000000E+00  0.00000000E+00  0.00000000E+00
  0.00000000E+00  0.00000000E+00  0.00000000E+00
  0.00000000E+00  0.00000000E+00  0.00000000E+00
  0.00000000E+00  0.00000000E+00  0.00000000E+00
  0.00000000E+00  0.00000000E+00  0.00000000E+00
  0.00000000E+00  0.00000000E+00  0.00000000E+00
  0.00000000E+00  0.00000000E+00  0.00000000E+00
  0.00000000E+00  0.00000000E+00  0.00000000E+00
  0.00000000E+00  0.00000000E+00  0.00000000E+00
  0.00000000E+00  0.00000000E+00  0.00000000E+00
  0.00000000E+00  0.00000000E+00  0.00000000E+00
  0.00000000E+00  0.00000000E+00  0.00000000E+00
  0.00000000E+00  0.00000000E+00  0.00000000E+00
  0.00000000E+00  0.00000000E+00  0.00000000E+00
  0.00000000E+00  0.00000000E+00  0.00000000E+00
  0.00000000E+00  0.00000000E+00  0.00000000E+00
  0.00000000E+00  0.00000000E+00  0.00000000E+00
  0.00000000E+00  0.00000000E+00  0.00000000E+00
  0.00000000E+00  0.00000000E+00  0.00000000E+00
  0.00000000E+00  0.00000000E+00  0.00000000E+00
  0.00000000E+00  0.00000000E+00  0.00000000E+00
  0.00000000E+00  0.00000000E+00  0.00000000E+00
  0.00000000E+00  0.00000000E+00  0.00000000E+00
  0.00000000E+00  0.00000000E+00  0.00000000E+00
  0.00000000E+00  0.00000000E+00  0.00000000E+00
  0.00000000E+00  0.00000000E+00  0.00000000E+00
  0.00000000E+00  0.00000000E+00  0.00000000E+00
  0.00000000E+00  0.00000000E+00  0.00000000E+00
  0.00000000E+00  0.00000000E+00  0.00000000E+00
  0.00000000E+00  0.00000000E+00  0.00000000E+00
  0.00000000E+00  0.00000000E+00  0.00000000E+00
