generated by phonopy                    
    1.014908014430036     
    55.7869736982548403    0.0000000000000000    0.0000000000000000
    -0.0000000000000000    4.9962589353751801   -0.0000000000000000
     0.0000000000000000   -2.4981294676875905    4.3268871619199070
   Co   Ru
   104     8
Direct
  0.0195553381422197  0.3333333333333286  0.1666666666666714
  0.0195553381422197  0.3333333333333286  0.6666666666666714
  0.0195553381422197  0.8333333333333286  0.1666666666666714
  0.0195553381422197  0.8333333333333286  0.6666666666666714
  0.0548456741993246  0.1666666666666714  0.3333333333333286
  0.0548456741993246  0.1666666666666714  0.8333333333333286
  0.0548456741993246  0.6666666666666714  0.3333333333333286
  0.0548456741993246  0.6666666666666714  0.8333333333333286
  0.0903131752780928  0.3333333333333286  0.1666666666666714
  0.0903131752780928  0.3333333333333286  0.6666666666666714
  0.0903131752780928  0.8333333333333286  0.1666666666666714
  0.0903131752780928  0.8333333333333286  0.6666666666666714
  0.1257032488034521  0.1666666666666714  0.3333333333333286
  0.1257032488034521  0.1666666666666714  0.8333333333333286
  0.1257032488034521  0.6666666666666714  0.3333333333333286
  0.1257032488034521  0.6666666666666714  0.8333333333333286
  0.1612623730683906  0.3333333333333286  0.1666666666666714
  0.1612623730683906  0.3333333333333286  0.6666666666666714
  0.1612623730683906  0.8333333333333286  0.1666666666666714
  0.1612623730683906  0.8333333333333286  0.6666666666666714
  0.1966814246091124  0.1666666666666714  0.3333333333333286
  0.1966814246091124  0.1666666666666714  0.8333333333333286
  0.1966814246091124  0.6666666666666714  0.3333333333333286
  0.1966814246091124  0.6666666666666714  0.8333333333333286
  0.2321428571428541  0.3333333333333286  0.1666666666666714
  0.2321428571428541  0.3333333333333286  0.6666666666666714
  0.2321428571428541  0.8333333333333286  0.1666666666666714
  0.2321428571428541  0.8333333333333286  0.6666666666666714
  0.2676042896766028  0.1666666666666714  0.3333333333333286
  0.2676042896766028  0.1666666666666714  0.8333333333333286
  0.2676042896766028  0.6666666666666714  0.3333333333333286
  0.2676042896766028  0.6666666666666714  0.8333333333333286
  0.3030233412173247  0.3333333333333286  0.1666666666666714
  0.3030233412173247  0.3333333333333286  0.6666666666666714
  0.3030233412173247  0.8333333333333286  0.1666666666666714
  0.3030233412173247  0.8333333333333286  0.6666666666666714
  0.3385824654822632  0.1666666666666714  0.3333333333333286
  0.3385824654822632  0.1666666666666714  0.8333333333333286
  0.3385824654822632  0.6666666666666714  0.3333333333333286
  0.3385824654822632  0.6666666666666714  0.8333333333333286
  0.3739725390076225  0.3333333333333286  0.1666666666666714
  0.3739725390076225  0.3333333333333286  0.6666666666666714
  0.3739725390076225  0.8333333333333286  0.1666666666666714
  0.3739725390076225  0.8333333333333286  0.6666666666666714
  0.4094400400863978  0.1666666666666714  0.3333333333333286
  0.4094400400863978  0.1666666666666714  0.8333333333333286
  0.4094400400863978  0.6666666666666714  0.3333333333333286
  0.4094400400863978  0.6666666666666714  0.8333333333333286
  0.4447303761434955  0.3333333333333286  0.1666666666666714
  0.4447303761434955  0.3333333333333286  0.6666666666666714
  0.4447303761434955  0.8333333333333286  0.1666666666666714
  0.4447303761434955  0.8333333333333286  0.6666666666666714
  0.5195553381422198  0.3333333333333286  0.1666666666666714
  0.5195553381422198  0.3333333333333286  0.6666666666666714
  0.5195553381422198  0.8333333333333286  0.1666666666666714
  0.5195553381422198  0.8333333333333286  0.6666666666666714
  0.5548456741993244  0.1666666666666714  0.3333333333333286
  0.5548456741993244  0.1666666666666714  0.8333333333333286
  0.5548456741993244  0.6666666666666714  0.3333333333333286
  0.5548456741993244  0.6666666666666714  0.8333333333333286
  0.5903131752780929  0.3333333333333286  0.1666666666666714
  0.5903131752780929  0.3333333333333286  0.6666666666666714
  0.5903131752780929  0.8333333333333286  0.1666666666666714
  0.5903131752780929  0.8333333333333286  0.6666666666666714
  0.6257032488034593  0.1666666666666714  0.3333333333333286
  0.6257032488034593  0.1666666666666714  0.8333333333333286
  0.6257032488034593  0.6666666666666714  0.3333333333333286
  0.6257032488034593  0.6666666666666714  0.8333333333333286
  0.6612623730683905  0.3333333333333286  0.1666666666666714
  0.6612623730683905  0.3333333333333286  0.6666666666666714
  0.6612623730683905  0.8333333333333286  0.1666666666666714
  0.6612623730683905  0.8333333333333286  0.6666666666666714
  0.6966814246091193  0.1666666666666714  0.3333333333333286
  0.6966814246091193  0.1666666666666714  0.8333333333333286
  0.6966814246091193  0.6666666666666714  0.3333333333333286
  0.6966814246091193  0.6666666666666714  0.8333333333333286
  0.7321428571428541  0.3333333333333286  0.1666666666666714
  0.7321428571428541  0.3333333333333286  0.6666666666666714
  0.7321428571428541  0.8333333333333286  0.1666666666666714
  0.7321428571428541  0.8333333333333286  0.6666666666666714
  0.7676042896765960  0.1666666666666714  0.3333333333333286
  0.7676042896765960  0.1666666666666714  0.8333333333333286
  0.7676042896765960  0.6666666666666714  0.3333333333333286
  0.7676042896765960  0.6666666666666714  0.8333333333333286
  0.8030233412173248  0.3333333333333286  0.1666666666666714
  0.8030233412173248  0.3333333333333286  0.6666666666666714
  0.8030233412173248  0.8333333333333286  0.1666666666666714
  0.8030233412173248  0.8333333333333286  0.6666666666666714
  0.8385824654822631  0.1666666666666714  0.3333333333333286
  0.8385824654822631  0.1666666666666714  0.8333333333333286
  0.8385824654822631  0.6666666666666714  0.3333333333333286
  0.8385824654822631  0.6666666666666714  0.8333333333333286
  0.8739725390076224  0.3333333333333286  0.1666666666666714
  0.8739725390076224  0.3333333333333286  0.6666666666666714
  0.8739725390076224  0.8333333333333286  0.1666666666666714
  0.8739725390076224  0.8333333333333286  0.6666666666666714
  0.9094400400863909  0.1666666666666714  0.3333333333333286
  0.9094400400863909  0.1666666666666714  0.8333333333333286
  0.9094400400863909  0.6666666666666714  0.3333333333333286
  0.9094400400863909  0.6666666666666714  0.8333333333333286
  0.9447303761434955  0.3333333333333286  0.1666666666666714
  0.9447303761434955  0.3333333333333286  0.6666666666666714
  0.9447303761434955  0.8333333333333286  0.1666666666666714
  0.9447303761434955  0.8333333333333286  0.6666666666666714
  0.4821428571428541  0.1666666666666714  0.3333333333333286
  0.4821428571428541  0.1666666666666714  0.8333333333333286
  0.4821428571428541  0.6666666666666714  0.3333333333333286
  0.4821428571428541  0.6666666666666714  0.8333333333333286
  0.9821428571428541  0.1666666666666714  0.3333333333333286
  0.9821428571428541  0.1666666666666714  0.8333333333333286
  0.9821428571428541  0.6666666666666714  0.3333333333333286
  0.9821428571428541  0.6666666666666714  0.8333333333333286
 
  0.00000000E+00  0.00000000E+00  0.00000000E+00
  0.00000000E+00  0.00000000E+00  0.00000000E+00
  0.00000000E+00  0.00000000E+00  0.00000000E+00
  0.00000000E+00  0.00000000E+00  0.00000000E+00
  0.00000000E+00  0.00000000E+00  0.00000000E+00
  0.00000000E+00  0.00000000E+00  0.00000000E+00
  0.00000000E+00  0.00000000E+00  0.00000000E+00
  0.00000000E+00  0.00000000E+00  0.00000000E+00
  0.00000000E+00  0.00000000E+00  0.00000000E+00
  0.00000000E+00  0.00000000E+00  0.00000000E+00
  0.00000000E+00  0.00000000E+00  0.00000000E+00
  0.00000000E+00  0.00000000E+00  0.00000000E+00
  0.00000000E+00  0.00000000E+00  0.00000000E+00
  0.00000000E+00  0.00000000E+00  0.00000000E+00
  0.00000000E+00  0.00000000E+00  0.00000000E+00
  0.00000000E+00  0.00000000E+00  0.00000000E+00
  0.00000000E+00  0.00000000E+00  0.00000000E+00
  0.00000000E+00  0.00000000E+00  0.00000000E+00
  0.00000000E+00  0.00000000E+00  0.00000000E+00
  0.00000000E+00  0.00000000E+00  0.00000000E+00
  0.00000000E+00  0.00000000E+00  0.00000000E+00
  0.00000000E+00  0.00000000E+00  0.00000000E+00
  0.00000000E+00  0.00000000E+00  0.00000000E+00
  0.00000000E+00  0.00000000E+00  0.00000000E+00
  0.00000000E+00  0.00000000E+00  0.00000000E+00
  0.00000000E+00  0.00000000E+00  0.00000000E+00
  0.00000000E+00  0.00000000E+00  0.00000000E+00
  0.00000000E+00  0.00000000E+00  0.00000000E+00
  0.00000000E+00  0.00000000E+00  0.00000000E+00
  0.00000000E+00  0.00000000E+00  0.00000000E+00
  0.00000000E+00  0.00000000E+00  0.00000000E+00
  0.00000000E+00  0.00000000E+00  0.00000000E+00
  0.00000000E+00  0.00000000E+00  0.00000000E+00
  0.00000000E+00  0.00000000E+00  0.00000000E+00
  0.00000000E+00  0.00000000E+00  0.00000000E+00
  0.00000000E+00  0.00000000E+00  0.00000000E+00
  0.00000000E+00  0.00000000E+00  0.00000000E+00
  0.00000000E+00  0.00000000E+00  0.00000000E+00
  0.00000000E+00  0.00000000E+00  0.00000000E+00
  0.00000000E+00  0.00000000E+00  0.00000000E+00
  0.00000000E+00  0.00000000E+00  0.00000000E+00
  0.00000000E+00  0.00000000E+00  0.00000000E+00
  0.00000000E+00  0.00000000E+00  0.00000000E+00
  0.00000000E+00  0.00000000E+00  0.00000000E+00
  0.00000000E+00  0.00000000E+00  0.00000000E+00
  0.00000000E+00  0.00000000E+00  0.00000000E+00
  0.00000000E+00  0.00000000E+00  0.00000000E+00
  0.00000000E+00  0.00000000E+00  0.00000000E+00
  0.00000000E+00  0.00000000E+00  0.00000000E+00
  0.00000000E+00  0.00000000E+00  0.00000000E+00
  0.00000000E+00  0.00000000E+00  0.00000000E+00
  0.00000000E+00  0.00000000E+00  0.00000000E+00
  0.00000000E+00  0.00000000E+00  0.00000000E+00
  0.00000000E+00  0.00000000E+00  0.00000000E+00
  0.00000000E+00  0.00000000E+00  0.00000000E+00
  0.00000000E+00  0.00000000E+00  0.00000000E+00
  0.00000000E+00  0.00000000E+00  0.00000000E+00
  0.00000000E+00  0.00000000E+00  0.00000000E+00
  0.00000000E+00  0.00000000E+00  0.00000000E+00
  0.00000000E+00  0.00000000E+00  0.00000000E+00
  0.00000000E+00  0.00000000E+00  0.00000000E+00
  0.00000000E+00  0.00000000E+00  0.00000000E+00
  0.00000000E+00  0.00000000E+00  0.00000000E+00
  0.00000000E+00  0.00000000E+00  0.00000000E+00
  0.00000000E+00  0.00000000E+00  0.00000000E+00
  0.00000000E+00  0.00000000E+00  0.00000000E+00
  0.00000000E+00  0.00000000E+00  0.00000000E+00
  0.00000000E+00  0.00000000E+00  0.00000000E+00
  0.00000000E+00  0.00000000E+00  0.00000000E+00
  0.00000000E+00  0.00000000E+00  0.00000000E+00
  0.00000000E+00  0.00000000E+00  0.00000000E+00
  0.00000000E+00  0.00000000E+00  0.00000000E+00
  0.00000000E+00  0.00000000E+00  0.00000000E+00
  0.00000000E+00  0.00000000E+00  0.00000000E+00
  0.00000000E+00  0.00000000E+00  0.00000000E+00
  0.00000000E+00  0.00000000E+00  0.00000000E+00
  0.00000000E+00  0.00000000E+00  0.00000000E+00
  0.00000000E+00  0.00000000E+00  0.00000000E+00
  0.00000000E+00  0.00000000E+00  0.00000000E+00
  0.00000000E+00  0.00000000E+00  0.00000000E+00
  0.00000000E+00  0.00000000E+00  0.00000000E+00
  0.00000000E+00  0.00000000E+00  0.00000000E+00
  0.00000000E+00  0.00000000E+00  0.00000000E+00
  0.00000000E+00  0.00000000E+00  0.00000000E+00
  0.00000000E+00  0.00000000E+00  0.00000000E+00
  0.00000000E+00  0.00000000E+00  0.00000000E+00
  0.00000000E+00  0.00000000E+00  0.00000000E+00
  0.00000000E+00  0.00000000E+00  0.00000000E+00
  0.00000000E+00  0.00000000E+00  0.00000000E+00
  0.00000000E+00  0.00000000E+00  0.00000000E+00
  0.00000000E+00  0.00000000E+00  0.00000000E+00
  0.00000000E+00  0.00000000E+00  0.00000000E+00
  0.00000000E+00  0.00000000E+00  0.00000000E+00
  0.00000000E+00  0.00000000E+00  0.00000000E+00
  0.00000000E+00  0.00000000E+00  0.00000000E+00
  0.00000000E+00  0.00000000E+00  0.00000000E+00
  0.00000000E+00  0.00000000E+00  0.00000000E+00
  0.00000000E+00  0.00000000E+00  0.00000000E+00
  0.00000000E+00  0.00000000E+00  0.00000000E+00
  0.00000000E+00  0.00000000E+00  0.00000000E+00
  0.00000000E+00  0.00000000E+00  0.00000000E+00
  0.00000000E+00  0.00000000E+00  0.00000000E+00
  0.00000000E+00  0.00000000E+00  0.00000000E+00
  0.00000000E+00  0.00000000E+00  0.00000000E+00
  0.00000000E+00  0.00000000E+00  0.00000000E+00
  0.00000000E+00  0.00000000E+00  0.00000000E+00
  0.00000000E+00  0.00000000E+00  0.00000000E+00
  0.00000000E+00  0.00000000E+00  0.00000000E+00
  0.00000000E+00  0.00000000E+00  0.00000000E+00
  0.00000000E+00  0.00000000E+00  0.00000000E+00
  0.00000000E+00  0.00000000E+00  0.00000000E+00
  0.00000000E+00  0.00000000E+00  0.00000000E+00
