generated by phonopy                    
    1.004758254194724     
    55.7934790039044231   -0.0000000000000000   -0.0000000000000000
    -0.0000000000000000    4.9959676545703067    0.0000000000000000
    -0.0000000000000000   -2.4979838272851538    4.3266349053432513
   Co   Ru
   104     8
Direct
  0.0196241049600621  0.3333333333333286  0.1666666666666714
  0.0196241049600621  0.3333333333333286  0.6666666666666714
  0.0196241049600621  0.8333333333333286  0.1666666666666714
  0.0196241049600621  0.8333333333333286  0.6666666666666714
  0.0548597631816362  0.1666666666666714  0.3333333333333286
  0.0548597631816362  0.1666666666666714  0.8333333333333286
  0.0548597631816362  0.6666666666666714  0.3333333333333286
  0.0548597631816362  0.6666666666666714  0.8333333333333286
  0.0903038118809274  0.3333333333333286  0.1666666666666714
  0.0903038118809274  0.3333333333333286  0.6666666666666714
  0.0903038118809274  0.8333333333333286  0.1666666666666714
  0.0903038118809274  0.8333333333333286  0.6666666666666714
  0.1256913884664991  0.1666666666666714  0.3333333333333286
  0.1256913884664991  0.1666666666666714  0.8333333333333286
  0.1256913884664991  0.6666666666666714  0.3333333333333286
  0.1256913884664991  0.6666666666666714  0.8333333333333286
  0.1612458456682058  0.3333333333333286  0.1666666666666714
  0.1612458456682058  0.3333333333333286  0.6666666666666714
  0.1612458456682058  0.8333333333333286  0.1666666666666714
  0.1612458456682058  0.8333333333333286  0.6666666666666714
  0.1966743692913593  0.1666666666666714  0.3333333333333286
  0.1966743692913593  0.1666666666666714  0.8333333333333286
  0.1966743692913593  0.6666666666666714  0.3333333333333286
  0.1966743692913593  0.6666666666666714  0.8333333333333286
  0.2321428571428541  0.3333333333333286  0.1666666666666714
  0.2321428571428541  0.3333333333333286  0.6666666666666714
  0.2321428571428541  0.8333333333333286  0.1666666666666714
  0.2321428571428541  0.8333333333333286  0.6666666666666714
  0.2676113449943557  0.1666666666666714  0.3333333333333286
  0.2676113449943557  0.1666666666666714  0.8333333333333286
  0.2676113449943557  0.6666666666666714  0.3333333333333286
  0.2676113449943557  0.6666666666666714  0.8333333333333286
  0.3030398686175098  0.3333333333333286  0.1666666666666714
  0.3030398686175098  0.3333333333333286  0.6666666666666714
  0.3030398686175098  0.8333333333333286  0.1666666666666714
  0.3030398686175098  0.8333333333333286  0.6666666666666714
  0.3385943258192162  0.1666666666666714  0.3333333333333286
  0.3385943258192162  0.1666666666666714  0.8333333333333286
  0.3385943258192162  0.6666666666666714  0.3333333333333286
  0.3385943258192162  0.6666666666666714  0.8333333333333286
  0.3739819024047880  0.3333333333333286  0.1666666666666714
  0.3739819024047880  0.3333333333333286  0.6666666666666714
  0.3739819024047880  0.8333333333333286  0.1666666666666714
  0.3739819024047880  0.8333333333333286  0.6666666666666714
  0.4094259511040863  0.1666666666666714  0.3333333333333286
  0.4094259511040863  0.1666666666666714  0.8333333333333286
  0.4094259511040863  0.6666666666666714  0.3333333333333286
  0.4094259511040863  0.6666666666666714  0.8333333333333286
  0.4446616093256532  0.3333333333333286  0.1666666666666714
  0.4446616093256532  0.3333333333333286  0.6666666666666714
  0.4446616093256532  0.8333333333333286  0.1666666666666714
  0.4446616093256532  0.8333333333333286  0.6666666666666714
  0.5196241049600621  0.3333333333333286  0.1666666666666714
  0.5196241049600621  0.3333333333333286  0.6666666666666714
  0.5196241049600621  0.8333333333333286  0.1666666666666714
  0.5196241049600621  0.8333333333333286  0.6666666666666714
  0.5548597631816362  0.1666666666666714  0.3333333333333286
  0.5548597631816362  0.1666666666666714  0.8333333333333286
  0.5548597631816362  0.6666666666666714  0.3333333333333286
  0.5548597631816362  0.6666666666666714  0.8333333333333286
  0.5903038118809273  0.3333333333333286  0.1666666666666714
  0.5903038118809273  0.3333333333333286  0.6666666666666714
  0.5903038118809273  0.8333333333333286  0.1666666666666714
  0.5903038118809273  0.8333333333333286  0.6666666666666714
  0.6256913884664989  0.1666666666666714  0.3333333333333286
  0.6256913884664989  0.1666666666666714  0.8333333333333286
  0.6256913884664989  0.6666666666666714  0.3333333333333286
  0.6256913884664989  0.6666666666666714  0.8333333333333286
  0.6612458456682058  0.3333333333333286  0.1666666666666714
  0.6612458456682058  0.3333333333333286  0.6666666666666714
  0.6612458456682058  0.8333333333333286  0.1666666666666714
  0.6612458456682058  0.8333333333333286  0.6666666666666714
  0.6966743692913664  0.1666666666666714  0.3333333333333286
  0.6966743692913664  0.1666666666666714  0.8333333333333286
  0.6966743692913664  0.6666666666666714  0.3333333333333286
  0.6966743692913664  0.6666666666666714  0.8333333333333286
  0.7321428571428541  0.3333333333333286  0.1666666666666714
  0.7321428571428541  0.3333333333333286  0.6666666666666714
  0.7321428571428541  0.8333333333333286  0.1666666666666714
  0.7321428571428541  0.8333333333333286  0.6666666666666714
  0.7676113449943489  0.1666666666666714  0.3333333333333286
  0.7676113449943489  0.1666666666666714  0.8333333333333286
  0.7676113449943489  0.6666666666666714  0.3333333333333286
  0.7676113449943489  0.6666666666666714  0.8333333333333286
  0.8030398686175095  0.3333333333333286  0.1666666666666714
  0.8030398686175095  0.3333333333333286  0.6666666666666714
  0.8030398686175095  0.8333333333333286  0.1666666666666714
  0.8030398686175095  0.8333333333333286  0.6666666666666714
  0.8385943258192164  0.1666666666666714  0.3333333333333286
  0.8385943258192164  0.1666666666666714  0.8333333333333286
  0.8385943258192164  0.6666666666666714  0.3333333333333286
  0.8385943258192164  0.6666666666666714  0.8333333333333286
  0.8739819024047880  0.3333333333333286  0.1666666666666714
  0.8739819024047880  0.3333333333333286  0.6666666666666714
  0.8739819024047880  0.8333333333333286  0.1666666666666714
  0.8739819024047880  0.8333333333333286  0.6666666666666714
  0.9094259511040791  0.1666666666666714  0.3333333333333286
  0.9094259511040791  0.1666666666666714  0.8333333333333286
  0.9094259511040791  0.6666666666666714  0.3333333333333286
  0.9094259511040791  0.6666666666666714  0.8333333333333286
  0.9446616093256532  0.3333333333333286  0.1666666666666714
  0.9446616093256532  0.3333333333333286  0.6666666666666714
  0.9446616093256532  0.8333333333333286  0.1666666666666714
  0.9446616093256532  0.8333333333333286  0.6666666666666714
  0.4821428571428541  0.1666666666666714  0.3333333333333286
  0.4821428571428541  0.1666666666666714  0.8333333333333286
  0.4821428571428541  0.6666666666666714  0.3333333333333286
  0.4821428571428541  0.6666666666666714  0.8333333333333286
  0.9821428571428541  0.1666666666666714  0.3333333333333286
  0.9821428571428541  0.1666666666666714  0.8333333333333286
  0.9821428571428541  0.6666666666666714  0.3333333333333286
  0.9821428571428541  0.6666666666666714  0.8333333333333286
 
  0.00000000E+00  0.00000000E+00  0.00000000E+00
  0.00000000E+00  0.00000000E+00  0.00000000E+00
  0.00000000E+00  0.00000000E+00  0.00000000E+00
  0.00000000E+00  0.00000000E+00  0.00000000E+00
  0.00000000E+00  0.00000000E+00  0.00000000E+00
  0.00000000E+00  0.00000000E+00  0.00000000E+00
  0.00000000E+00  0.00000000E+00  0.00000000E+00
  0.00000000E+00  0.00000000E+00  0.00000000E+00
  0.00000000E+00  0.00000000E+00  0.00000000E+00
  0.00000000E+00  0.00000000E+00  0.00000000E+00
  0.00000000E+00  0.00000000E+00  0.00000000E+00
  0.00000000E+00  0.00000000E+00  0.00000000E+00
  0.00000000E+00  0.00000000E+00  0.00000000E+00
  0.00000000E+00  0.00000000E+00  0.00000000E+00
  0.00000000E+00  0.00000000E+00  0.00000000E+00
  0.00000000E+00  0.00000000E+00  0.00000000E+00
  0.00000000E+00  0.00000000E+00  0.00000000E+00
  0.00000000E+00  0.00000000E+00  0.00000000E+00
  0.00000000E+00  0.00000000E+00  0.00000000E+00
  0.00000000E+00  0.00000000E+00  0.00000000E+00
  0.00000000E+00  0.00000000E+00  0.00000000E+00
  0.00000000E+00  0.00000000E+00  0.00000000E+00
  0.00000000E+00  0.00000000E+00  0.00000000E+00
  0.00000000E+00  0.00000000E+00  0.00000000E+00
  0.00000000E+00  0.00000000E+00  0.00000000E+00
  0.00000000E+00  0.00000000E+00  0.00000000E+00
  0.00000000E+00  0.00000000E+00  0.00000000E+00
  0.00000000E+00  0.00000000E+00  0.00000000E+00
  0.00000000E+00  0.00000000E+00  0.00000000E+00
  0.00000000E+00  0.00000000E+00  0.00000000E+00
  0.00000000E+00  0.00000000E+00  0.00000000E+00
  0.00000000E+00  0.00000000E+00  0.00000000E+00
  0.00000000E+00  0.00000000E+00  0.00000000E+00
  0.00000000E+00  0.00000000E+00  0.00000000E+00
  0.00000000E+00  0.00000000E+00  0.00000000E+00
  0.00000000E+00  0.00000000E+00  0.00000000E+00
  0.00000000E+00  0.00000000E+00  0.00000000E+00
  0.00000000E+00  0.00000000E+00  0.00000000E+00
  0.00000000E+00  0.00000000E+00  0.00000000E+00
  0.00000000E+00  0.00000000E+00  0.00000000E+00
  0.00000000E+00  0.00000000E+00  0.00000000E+00
  0.00000000E+00  0.00000000E+00  0.00000000E+00
  0.00000000E+00  0.00000000E+00  0.00000000E+00
  0.00000000E+00  0.00000000E+00  0.00000000E+00
  0.00000000E+00  0.00000000E+00  0.00000000E+00
  0.00000000E+00  0.00000000E+00  0.00000000E+00
  0.00000000E+00  0.00000000E+00  0.00000000E+00
  0.00000000E+00  0.00000000E+00  0.00000000E+00
  0.00000000E+00  0.00000000E+00  0.00000000E+00
  0.00000000E+00  0.00000000E+00  0.00000000E+00
  0.00000000E+00  0.00000000E+00  0.00000000E+00
  0.00000000E+00  0.00000000E+00  0.00000000E+00
  0.00000000E+00  0.00000000E+00  0.00000000E+00
  0.00000000E+00  0.00000000E+00  0.00000000E+00
  0.00000000E+00  0.00000000E+00  0.00000000E+00
  0.00000000E+00  0.00000000E+00  0.00000000E+00
  0.00000000E+00  0.00000000E+00  0.00000000E+00
  0.00000000E+00  0.00000000E+00  0.00000000E+00
  0.00000000E+00  0.00000000E+00  0.00000000E+00
  0.00000000E+00  0.00000000E+00  0.00000000E+00
  0.00000000E+00  0.00000000E+00  0.00000000E+00
  0.00000000E+00  0.00000000E+00  0.00000000E+00
  0.00000000E+00  0.00000000E+00  0.00000000E+00
  0.00000000E+00  0.00000000E+00  0.00000000E+00
  0.00000000E+00  0.00000000E+00  0.00000000E+00
  0.00000000E+00  0.00000000E+00  0.00000000E+00
  0.00000000E+00  0.00000000E+00  0.00000000E+00
  0.00000000E+00  0.00000000E+00  0.00000000E+00
  0.00000000E+00  0.00000000E+00  0.00000000E+00
  0.00000000E+00  0.00000000E+00  0.00000000E+00
  0.00000000E+00  0.00000000E+00  0.00000000E+00
  0.00000000E+00  0.00000000E+00  0.00000000E+00
  0.00000000E+00  0.00000000E+00  0.00000000E+00
  0.00000000E+00  0.00000000E+00  0.00000000E+00
  0.00000000E+00  0.00000000E+00  0.00000000E+00
  0.00000000E+00  0.00000000E+00  0.00000000E+00
  0.00000000E+00  0.00000000E+00  0.00000000E+00
  0.00000000E+00  0.00000000E+00  0.00000000E+00
  0.00000000E+00  0.00000000E+00  0.00000000E+00
  0.00000000E+00  0.00000000E+00  0.00000000E+00
  0.00000000E+00  0.00000000E+00  0.00000000E+00
  0.00000000E+00  0.00000000E+00  0.00000000E+00
  0.00000000E+00  0.00000000E+00  0.00000000E+00
  0.00000000E+00  0.00000000E+00  0.00000000E+00
  0.00000000E+00  0.00000000E+00  0.00000000E+00
  0.00000000E+00  0.00000000E+00  0.00000000E+00
  0.00000000E+00  0.00000000E+00  0.00000000E+00
  0.00000000E+00  0.00000000E+00  0.00000000E+00
  0.00000000E+00  0.00000000E+00  0.00000000E+00
  0.00000000E+00  0.00000000E+00  0.00000000E+00
  0.00000000E+00  0.00000000E+00  0.00000000E+00
  0.00000000E+00  0.00000000E+00  0.00000000E+00
  0.00000000E+00  0.00000000E+00  0.00000000E+00
  0.00000000E+00  0.00000000E+00  0.00000000E+00
  0.00000000E+00  0.00000000E+00  0.00000000E+00
  0.00000000E+00  0.00000000E+00  0.00000000E+00
  0.00000000E+00  0.00000000E+00  0.00000000E+00
  0.00000000E+00  0.00000000E+00  0.00000000E+00
  0.00000000E+00  0.00000000E+00  0.00000000E+00
  0.00000000E+00  0.00000000E+00  0.00000000E+00
  0.00000000E+00  0.00000000E+00  0.00000000E+00
  0.00000000E+00  0.00000000E+00  0.00000000E+00
  0.00000000E+00  0.00000000E+00  0.00000000E+00
  0.00000000E+00  0.00000000E+00  0.00000000E+00
  0.00000000E+00  0.00000000E+00  0.00000000E+00
  0.00000000E+00  0.00000000E+00  0.00000000E+00
  0.00000000E+00  0.00000000E+00  0.00000000E+00
  0.00000000E+00  0.00000000E+00  0.00000000E+00
  0.00000000E+00  0.00000000E+00  0.00000000E+00
  0.00000000E+00  0.00000000E+00  0.00000000E+00
  0.00000000E+00  0.00000000E+00  0.00000000E+00
  0.00000000E+00  0.00000000E+00  0.00000000E+00
