generated by phonopy                    
    1.003322283542089     
    24.2551848332965179   -0.0000000000000000   -0.0000000000000000
     0.0000000000000000    5.1219156906934851    0.0000000000000000
    -0.0000000000000000   -2.5609578453467425    4.4357091041826751
   Co   Ru
    40     8
Direct
  0.0448387150207097  0.3333333333333286  0.1666666666666714
  0.0448387150207097  0.3333333333333286  0.6666666666666714
  0.0448387150207097  0.8333333333333286  0.1666666666666714
  0.0448387150207097  0.8333333333333286  0.6666666666666714
  0.1264094972730447  0.1666666666666714  0.3333333333333286
  0.1264094972730447  0.1666666666666714  0.8333333333333286
  0.1264094972730447  0.6666666666666714  0.3333333333333286
  0.1264094972730447  0.6666666666666714  0.8333333333333286
  0.2083333333333357  0.3333333333333286  0.1666666666666714
  0.2083333333333357  0.3333333333333286  0.6666666666666714
  0.2083333333333357  0.8333333333333286  0.1666666666666714
  0.2083333333333357  0.8333333333333286  0.6666666666666714
  0.2902571693936125  0.1666666666666714  0.3333333333333286
  0.2902571693936125  0.1666666666666714  0.8333333333333286
  0.2902571693936125  0.6666666666666714  0.3333333333333286
  0.2902571693936125  0.6666666666666714  0.8333333333333286
  0.3718279516459546  0.3333333333333286  0.1666666666666714
  0.3718279516459546  0.3333333333333286  0.6666666666666714
  0.3718279516459546  0.8333333333333286  0.1666666666666714
  0.3718279516459546  0.8333333333333286  0.6666666666666714
  0.5448387150207097  0.3333333333333286  0.1666666666666714
  0.5448387150207097  0.3333333333333286  0.6666666666666714
  0.5448387150207097  0.8333333333333286  0.1666666666666714
  0.5448387150207097  0.8333333333333286  0.6666666666666714
  0.6264094972730518  0.1666666666666714  0.3333333333333286
  0.6264094972730518  0.1666666666666714  0.8333333333333286
  0.6264094972730518  0.6666666666666714  0.3333333333333286
  0.6264094972730518  0.6666666666666714  0.8333333333333286
  0.7083333333333357  0.3333333333333286  0.1666666666666714
  0.7083333333333357  0.3333333333333286  0.6666666666666714
  0.7083333333333357  0.8333333333333286  0.1666666666666714
  0.7083333333333357  0.8333333333333286  0.6666666666666714
  0.7902571693936125  0.1666666666666714  0.3333333333333286
  0.7902571693936125  0.1666666666666714  0.8333333333333286
  0.7902571693936125  0.6666666666666714  0.3333333333333286
  0.7902571693936125  0.6666666666666714  0.8333333333333286
  0.8718279516459546  0.3333333333333286  0.1666666666666714
  0.8718279516459546  0.3333333333333286  0.6666666666666714
  0.8718279516459546  0.8333333333333286  0.1666666666666714
  0.8718279516459546  0.8333333333333286  0.6666666666666714
  0.4583333333333357  0.1666666666666714  0.3333333333333286
  0.4583333333333357  0.1666666666666714  0.8333333333333286
  0.4583333333333357  0.6666666666666714  0.3333333333333286
  0.4583333333333357  0.6666666666666714  0.8333333333333286
  0.9583333333333357  0.1666666666666714  0.3333333333333286
  0.9583333333333357  0.1666666666666714  0.8333333333333286
  0.9583333333333357  0.6666666666666714  0.3333333333333286
  0.9583333333333357  0.6666666666666714  0.8333333333333286
 
  0.00000000E+00  0.00000000E+00  0.00000000E+00
  0.00000000E+00  0.00000000E+00  0.00000000E+00
  0.00000000E+00  0.00000000E+00  0.00000000E+00
  0.00000000E+00  0.00000000E+00  0.00000000E+00
  0.00000000E+00  0.00000000E+00  0.00000000E+00
  0.00000000E+00  0.00000000E+00  0.00000000E+00
  0.00000000E+00  0.00000000E+00  0.00000000E+00
  0.00000000E+00  0.00000000E+00  0.00000000E+00
  0.00000000E+00  0.00000000E+00  0.00000000E+00
  0.00000000E+00  0.00000000E+00  0.00000000E+00
  0.00000000E+00  0.00000000E+00  0.00000000E+00
  0.00000000E+00  0.00000000E+00  0.00000000E+00
  0.00000000E+00  0.00000000E+00  0.00000000E+00
  0.00000000E+00  0.00000000E+00  0.00000000E+00
  0.00000000E+00  0.00000000E+00  0.00000000E+00
  0.00000000E+00  0.00000000E+00  0.00000000E+00
  0.00000000E+00  0.00000000E+00  0.00000000E+00
  0.00000000E+00  0.00000000E+00  0.00000000E+00
  0.00000000E+00  0.00000000E+00  0.00000000E+00
  0.00000000E+00  0.00000000E+00  0.00000000E+00
  0.00000000E+00  0.00000000E+00  0.00000000E+00
  0.00000000E+00  0.00000000E+00  0.00000000E+00
  0.00000000E+00  0.00000000E+00  0.00000000E+00
  0.00000000E+00  0.00000000E+00  0.00000000E+00
  0.00000000E+00  0.00000000E+00  0.00000000E+00
  0.00000000E+00  0.00000000E+00  0.00000000E+00
  0.00000000E+00  0.00000000E+00  0.00000000E+00
  0.00000000E+00  0.00000000E+00  0.00000000E+00
  0.00000000E+00  0.00000000E+00  0.00000000E+00
  0.00000000E+00  0.00000000E+00  0.00000000E+00
  0.00000000E+00  0.00000000E+00  0.00000000E+00
  0.00000000E+00  0.00000000E+00  0.00000000E+00
  0.00000000E+00  0.00000000E+00  0.00000000E+00
  0.00000000E+00  0.00000000E+00  0.00000000E+00
  0.00000000E+00  0.00000000E+00  0.00000000E+00
  0.00000000E+00  0.00000000E+00  0.00000000E+00
  0.00000000E+00  0.00000000E+00  0.00000000E+00
  0.00000000E+00  0.00000000E+00  0.00000000E+00
  0.00000000E+00  0.00000000E+00  0.00000000E+00
  0.00000000E+00  0.00000000E+00  0.00000000E+00
  0.00000000E+00  0.00000000E+00  0.00000000E+00
  0.00000000E+00  0.00000000E+00  0.00000000E+00
  0.00000000E+00  0.00000000E+00  0.00000000E+00
  0.00000000E+00  0.00000000E+00  0.00000000E+00
  0.00000000E+00  0.00000000E+00  0.00000000E+00
  0.00000000E+00  0.00000000E+00  0.00000000E+00
  0.00000000E+00  0.00000000E+00  0.00000000E+00
  0.00000000E+00  0.00000000E+00  0.00000000E+00
