generated by phonopy                    
   0.9932883883792689     
    24.2443797623020387   -0.0000000000000000   -0.0000000000000000
    -0.0000000000000000    5.1230569139047164    0.0000000000000000
     0.0000000000000000   -2.5615284569523582    4.4366974324749933
   Co   Ru
    40     8
Direct
  0.0450013734853911  0.3333333333333286  0.1666666666666714
  0.0450013734853911  0.3333333333333286  0.6666666666666714
  0.0450013734853911  0.8333333333333286  0.1666666666666714
  0.0450013734853911  0.8333333333333286  0.6666666666666714
  0.1264646881578955  0.1666666666666714  0.3333333333333286
  0.1264646881578955  0.1666666666666714  0.8333333333333286
  0.1264646881578955  0.6666666666666714  0.3333333333333286
  0.1264646881578955  0.6666666666666714  0.8333333333333286
  0.2083333333333357  0.3333333333333286  0.1666666666666714
  0.2083333333333357  0.3333333333333286  0.6666666666666714
  0.2083333333333357  0.8333333333333286  0.1666666666666714
  0.2083333333333357  0.8333333333333286  0.6666666666666714
  0.2902019785087688  0.1666666666666714  0.3333333333333286
  0.2902019785087688  0.1666666666666714  0.8333333333333286
  0.2902019785087688  0.6666666666666714  0.3333333333333286
  0.2902019785087688  0.6666666666666714  0.8333333333333286
  0.3716652931812732  0.3333333333333286  0.1666666666666714
  0.3716652931812732  0.3333333333333286  0.6666666666666714
  0.3716652931812732  0.8333333333333286  0.1666666666666714
  0.3716652931812732  0.8333333333333286  0.6666666666666714
  0.5450013734853911  0.3333333333333286  0.1666666666666714
  0.5450013734853911  0.3333333333333286  0.6666666666666714
  0.5450013734853911  0.8333333333333286  0.1666666666666714
  0.5450013734853911  0.8333333333333286  0.6666666666666714
  0.6264646881578955  0.1666666666666714  0.3333333333333286
  0.6264646881578955  0.1666666666666714  0.8333333333333286
  0.6264646881578955  0.6666666666666714  0.3333333333333286
  0.6264646881578955  0.6666666666666714  0.8333333333333286
  0.7083333333333357  0.3333333333333286  0.1666666666666714
  0.7083333333333357  0.3333333333333286  0.6666666666666714
  0.7083333333333357  0.8333333333333286  0.1666666666666714
  0.7083333333333357  0.8333333333333286  0.6666666666666714
  0.7902019785087688  0.1666666666666714  0.3333333333333286
  0.7902019785087688  0.1666666666666714  0.8333333333333286
  0.7902019785087688  0.6666666666666714  0.3333333333333286
  0.7902019785087688  0.6666666666666714  0.8333333333333286
  0.8716652931812732  0.3333333333333286  0.1666666666666714
  0.8716652931812732  0.3333333333333286  0.6666666666666714
  0.8716652931812732  0.8333333333333286  0.1666666666666714
  0.8716652931812732  0.8333333333333286  0.6666666666666714
  0.4583333333333357  0.1666666666666714  0.3333333333333286
  0.4583333333333357  0.1666666666666714  0.8333333333333286
  0.4583333333333357  0.6666666666666714  0.3333333333333286
  0.4583333333333357  0.6666666666666714  0.8333333333333286
  0.9583333333333357  0.1666666666666714  0.3333333333333286
  0.9583333333333357  0.1666666666666714  0.8333333333333286
  0.9583333333333357  0.6666666666666714  0.3333333333333286
  0.9583333333333357  0.6666666666666714  0.8333333333333286
 
  0.00000000E+00  0.00000000E+00  0.00000000E+00
  0.00000000E+00  0.00000000E+00  0.00000000E+00
  0.00000000E+00  0.00000000E+00  0.00000000E+00
  0.00000000E+00  0.00000000E+00  0.00000000E+00
  0.00000000E+00  0.00000000E+00  0.00000000E+00
  0.00000000E+00  0.00000000E+00  0.00000000E+00
  0.00000000E+00  0.00000000E+00  0.00000000E+00
  0.00000000E+00  0.00000000E+00  0.00000000E+00
  0.00000000E+00  0.00000000E+00  0.00000000E+00
  0.00000000E+00  0.00000000E+00  0.00000000E+00
  0.00000000E+00  0.00000000E+00  0.00000000E+00
  0.00000000E+00  0.00000000E+00  0.00000000E+00
  0.00000000E+00  0.00000000E+00  0.00000000E+00
  0.00000000E+00  0.00000000E+00  0.00000000E+00
  0.00000000E+00  0.00000000E+00  0.00000000E+00
  0.00000000E+00  0.00000000E+00  0.00000000E+00
  0.00000000E+00  0.00000000E+00  0.00000000E+00
  0.00000000E+00  0.00000000E+00  0.00000000E+00
  0.00000000E+00  0.00000000E+00  0.00000000E+00
  0.00000000E+00  0.00000000E+00  0.00000000E+00
  0.00000000E+00  0.00000000E+00  0.00000000E+00
  0.00000000E+00  0.00000000E+00  0.00000000E+00
  0.00000000E+00  0.00000000E+00  0.00000000E+00
  0.00000000E+00  0.00000000E+00  0.00000000E+00
  0.00000000E+00  0.00000000E+00  0.00000000E+00
  0.00000000E+00  0.00000000E+00  0.00000000E+00
  0.00000000E+00  0.00000000E+00  0.00000000E+00
  0.00000000E+00  0.00000000E+00  0.00000000E+00
  0.00000000E+00  0.00000000E+00  0.00000000E+00
  0.00000000E+00  0.00000000E+00  0.00000000E+00
  0.00000000E+00  0.00000000E+00  0.00000000E+00
  0.00000000E+00  0.00000000E+00  0.00000000E+00
  0.00000000E+00  0.00000000E+00  0.00000000E+00
  0.00000000E+00  0.00000000E+00  0.00000000E+00
  0.00000000E+00  0.00000000E+00  0.00000000E+00
  0.00000000E+00  0.00000000E+00  0.00000000E+00
  0.00000000E+00  0.00000000E+00  0.00000000E+00
  0.00000000E+00  0.00000000E+00  0.00000000E+00
  0.00000000E+00  0.00000000E+00  0.00000000E+00
  0.00000000E+00  0.00000000E+00  0.00000000E+00
  0.00000000E+00  0.00000000E+00  0.00000000E+00
  0.00000000E+00  0.00000000E+00  0.00000000E+00
  0.00000000E+00  0.00000000E+00  0.00000000E+00
  0.00000000E+00  0.00000000E+00  0.00000000E+00
  0.00000000E+00  0.00000000E+00  0.00000000E+00
  0.00000000E+00  0.00000000E+00  0.00000000E+00
  0.00000000E+00  0.00000000E+00  0.00000000E+00
  0.00000000E+00  0.00000000E+00  0.00000000E+00
