generated by phonopy                    
   0.9966554934125966     
    24.2436148145476338    0.0000000000000000    0.0000000000000000
     0.0000000000000000    5.1231377360098334    0.0000000000000000
     0.0000000000000000   -2.5615688680049167    4.4367674264712118
   Co   Ru
    40     8
Direct
  0.0449900232624856  0.3333333333333286  0.1666666666666714
  0.0449900232624856  0.3333333333333286  0.6666666666666714
  0.0449900232624856  0.8333333333333286  0.1666666666666714
  0.0449900232624856  0.8333333333333286  0.6666666666666714
  0.1264691901879829  0.1666666666666714  0.3333333333333286
  0.1264691901879829  0.1666666666666714  0.8333333333333286
  0.1264691901879829  0.6666666666666714  0.3333333333333286
  0.1264691901879829  0.6666666666666714  0.8333333333333286
  0.2083333333333357  0.3333333333333286  0.1666666666666714
  0.2083333333333357  0.3333333333333286  0.6666666666666714
  0.2083333333333357  0.8333333333333286  0.1666666666666714
  0.2083333333333357  0.8333333333333286  0.6666666666666714
  0.2901974764786814  0.1666666666666714  0.3333333333333286
  0.2901974764786814  0.1666666666666714  0.8333333333333286
  0.2901974764786814  0.6666666666666714  0.3333333333333286
  0.2901974764786814  0.6666666666666714  0.8333333333333286
  0.3716766434041787  0.3333333333333286  0.1666666666666714
  0.3716766434041787  0.3333333333333286  0.6666666666666714
  0.3716766434041787  0.8333333333333286  0.1666666666666714
  0.3716766434041787  0.8333333333333286  0.6666666666666714
  0.5449900232624856  0.3333333333333286  0.1666666666666714
  0.5449900232624856  0.3333333333333286  0.6666666666666714
  0.5449900232624856  0.8333333333333286  0.1666666666666714
  0.5449900232624856  0.8333333333333286  0.6666666666666714
  0.6264691901879829  0.1666666666666714  0.3333333333333286
  0.6264691901879829  0.1666666666666714  0.8333333333333286
  0.6264691901879829  0.6666666666666714  0.3333333333333286
  0.6264691901879829  0.6666666666666714  0.8333333333333286
  0.7083333333333357  0.3333333333333286  0.1666666666666714
  0.7083333333333357  0.3333333333333286  0.6666666666666714
  0.7083333333333357  0.8333333333333286  0.1666666666666714
  0.7083333333333357  0.8333333333333286  0.6666666666666714
  0.7901974764786814  0.1666666666666714  0.3333333333333286
  0.7901974764786814  0.1666666666666714  0.8333333333333286
  0.7901974764786814  0.6666666666666714  0.3333333333333286
  0.7901974764786814  0.6666666666666714  0.8333333333333286
  0.8716766434041787  0.3333333333333286  0.1666666666666714
  0.8716766434041787  0.3333333333333286  0.6666666666666714
  0.8716766434041787  0.8333333333333286  0.1666666666666714
  0.8716766434041787  0.8333333333333286  0.6666666666666714
  0.4583333333333357  0.1666666666666714  0.3333333333333286
  0.4583333333333357  0.1666666666666714  0.8333333333333286
  0.4583333333333357  0.6666666666666714  0.3333333333333286
  0.4583333333333357  0.6666666666666714  0.8333333333333286
  0.9583333333333357  0.1666666666666714  0.3333333333333286
  0.9583333333333357  0.1666666666666714  0.8333333333333286
  0.9583333333333357  0.6666666666666714  0.3333333333333286
  0.9583333333333357  0.6666666666666714  0.8333333333333286
 
  0.00000000E+00  0.00000000E+00  0.00000000E+00
  0.00000000E+00  0.00000000E+00  0.00000000E+00
  0.00000000E+00  0.00000000E+00  0.00000000E+00
  0.00000000E+00  0.00000000E+00  0.00000000E+00
  0.00000000E+00  0.00000000E+00  0.00000000E+00
  0.00000000E+00  0.00000000E+00  0.00000000E+00
  0.00000000E+00  0.00000000E+00  0.00000000E+00
  0.00000000E+00  0.00000000E+00  0.00000000E+00
  0.00000000E+00  0.00000000E+00  0.00000000E+00
  0.00000000E+00  0.00000000E+00  0.00000000E+00
  0.00000000E+00  0.00000000E+00  0.00000000E+00
  0.00000000E+00  0.00000000E+00  0.00000000E+00
  0.00000000E+00  0.00000000E+00  0.00000000E+00
  0.00000000E+00  0.00000000E+00  0.00000000E+00
  0.00000000E+00  0.00000000E+00  0.00000000E+00
  0.00000000E+00  0.00000000E+00  0.00000000E+00
  0.00000000E+00  0.00000000E+00  0.00000000E+00
  0.00000000E+00  0.00000000E+00  0.00000000E+00
  0.00000000E+00  0.00000000E+00  0.00000000E+00
  0.00000000E+00  0.00000000E+00  0.00000000E+00
  0.00000000E+00  0.00000000E+00  0.00000000E+00
  0.00000000E+00  0.00000000E+00  0.00000000E+00
  0.00000000E+00  0.00000000E+00  0.00000000E+00
  0.00000000E+00  0.00000000E+00  0.00000000E+00
  0.00000000E+00  0.00000000E+00  0.00000000E+00
  0.00000000E+00  0.00000000E+00  0.00000000E+00
  0.00000000E+00  0.00000000E+00  0.00000000E+00
  0.00000000E+00  0.00000000E+00  0.00000000E+00
  0.00000000E+00  0.00000000E+00  0.00000000E+00
  0.00000000E+00  0.00000000E+00  0.00000000E+00
  0.00000000E+00  0.00000000E+00  0.00000000E+00
  0.00000000E+00  0.00000000E+00  0.00000000E+00
  0.00000000E+00  0.00000000E+00  0.00000000E+00
  0.00000000E+00  0.00000000E+00  0.00000000E+00
  0.00000000E+00  0.00000000E+00  0.00000000E+00
  0.00000000E+00  0.00000000E+00  0.00000000E+00
  0.00000000E+00  0.00000000E+00  0.00000000E+00
  0.00000000E+00  0.00000000E+00  0.00000000E+00
  0.00000000E+00  0.00000000E+00  0.00000000E+00
  0.00000000E+00  0.00000000E+00  0.00000000E+00
  0.00000000E+00  0.00000000E+00  0.00000000E+00
  0.00000000E+00  0.00000000E+00  0.00000000E+00
  0.00000000E+00  0.00000000E+00  0.00000000E+00
  0.00000000E+00  0.00000000E+00  0.00000000E+00
  0.00000000E+00  0.00000000E+00  0.00000000E+00
  0.00000000E+00  0.00000000E+00  0.00000000E+00
  0.00000000E+00  0.00000000E+00  0.00000000E+00
  0.00000000E+00  0.00000000E+00  0.00000000E+00
