generated by phonopy                    
    1.014699785451185     
    51.7384310497234168    0.0000000000000000   -0.0000000000000000
    -0.0000000000000000    5.0511492468421650   -0.0000000000000001
     0.0000000000000000   -2.5255746234210825    4.3744235660719442
   Co   Ru
    88    16
Direct
  0.0225811446356659  0.3333333333333286  0.1666666666666714
  0.0225811446356659  0.3333333333333286  0.6666666666666714
  0.0225811446356659  0.8333333333333286  0.1666666666666714
  0.0225811446356659  0.8333333333333286  0.6666666666666714
  0.0603878929321358  0.1666666666666714  0.3333333333333286
  0.0603878929321358  0.1666666666666714  0.8333333333333286
  0.0603878929321358  0.6666666666666714  0.3333333333333286
  0.0603878929321358  0.6666666666666714  0.8333333333333286
  0.0981037142070615  0.3333333333333286  0.1666666666666714
  0.0981037142070615  0.3333333333333286  0.6666666666666714
  0.0981037142070615  0.8333333333333286  0.1666666666666714
  0.0981037142070615  0.8333333333333286  0.6666666666666714
  0.1359883748595232  0.1666666666666714  0.3333333333333286
  0.1359883748595232  0.1666666666666714  0.8333333333333286
  0.1359883748595232  0.6666666666666714  0.3333333333333286
  0.1359883748595232  0.6666666666666714  0.8333333333333286
  0.1737390194204738  0.3333333333333286  0.1666666666666714
  0.1737390194204738  0.3333333333333286  0.6666666666666714
  0.1737390194204738  0.8333333333333286  0.1666666666666714
  0.1737390194204738  0.8333333333333286  0.6666666666666714
  0.2115404109591153  0.1666666666666714  0.3333333333333286
  0.2115404109591153  0.1666666666666714  0.8333333333333286
  0.2115404109591153  0.6666666666666714  0.3333333333333286
  0.2115404109591153  0.6666666666666714  0.8333333333333286
  0.2493402718284820  0.3333333333333286  0.1666666666666714
  0.2493402718284820  0.3333333333333286  0.6666666666666714
  0.2493402718284820  0.8333333333333286  0.1666666666666714
  0.2493402718284820  0.8333333333333286  0.6666666666666714
  0.2870898694268654  0.1666666666666714  0.3333333333333286
  0.2870898694268654  0.1666666666666714  0.8333333333333286
  0.2870898694268654  0.6666666666666714  0.3333333333333286
  0.2870898694268654  0.6666666666666714  0.8333333333333286
  0.3249732478392698  0.3333333333333286  0.1666666666666714
  0.3249732478392698  0.3333333333333286  0.6666666666666714
  0.3249732478392698  0.8333333333333286  0.1666666666666714
  0.3249732478392698  0.8333333333333286  0.6666666666666714
  0.3626883058831813  0.1666666666666714  0.3333333333333286
  0.3626883058831813  0.1666666666666714  0.8333333333333286
  0.3626883058831813  0.6666666666666714  0.3333333333333286
  0.3626883058831813  0.6666666666666714  0.8333333333333286
  0.4004943663108894  0.3333333333333286  0.1666666666666714
  0.4004943663108894  0.3333333333333286  0.6666666666666714
  0.4004943663108894  0.8333333333333286  0.1666666666666714
  0.4004943663108894  0.8333333333333286  0.6666666666666714
  0.5225811446356662  0.1666666666666714  0.3333333333333286
  0.5225811446356662  0.1666666666666714  0.8333333333333286
  0.5225811446356662  0.6666666666666714  0.3333333333333286
  0.5225811446356662  0.6666666666666714  0.8333333333333286
  0.5603878929321358  0.3333333333333286  0.1666666666666714
  0.5603878929321358  0.3333333333333286  0.6666666666666714
  0.5603878929321358  0.8333333333333286  0.1666666666666714
  0.5603878929321358  0.8333333333333286  0.6666666666666714
  0.5981037142070545  0.1666666666666714  0.3333333333333286
  0.5981037142070545  0.1666666666666714  0.8333333333333286
  0.5981037142070545  0.6666666666666714  0.3333333333333286
  0.5981037142070545  0.6666666666666714  0.8333333333333286
  0.6359883748595162  0.3333333333333286  0.1666666666666714
  0.6359883748595162  0.3333333333333286  0.6666666666666714
  0.6359883748595162  0.8333333333333286  0.1666666666666714
  0.6359883748595162  0.8333333333333286  0.6666666666666714
  0.6737390194204738  0.1666666666666714  0.3333333333333286
  0.6737390194204738  0.1666666666666714  0.8333333333333286
  0.6737390194204738  0.6666666666666714  0.3333333333333286
  0.6737390194204738  0.6666666666666714  0.8333333333333286
  0.7115404109591147  0.3333333333333286  0.1666666666666714
  0.7115404109591147  0.3333333333333286  0.6666666666666714
  0.7115404109591147  0.8333333333333286  0.1666666666666714
  0.7115404109591147  0.8333333333333286  0.6666666666666714
  0.7493402718284821  0.1666666666666714  0.3333333333333286
  0.7493402718284821  0.1666666666666714  0.8333333333333286
  0.7493402718284821  0.6666666666666714  0.3333333333333286
  0.7493402718284821  0.6666666666666714  0.8333333333333286
  0.7870898694268659  0.3333333333333286  0.1666666666666714
  0.7870898694268659  0.3333333333333286  0.6666666666666714
  0.7870898694268659  0.8333333333333286  0.1666666666666714
  0.7870898694268659  0.8333333333333286  0.6666666666666714
  0.8249732478392698  0.1666666666666714  0.3333333333333286
  0.8249732478392698  0.1666666666666714  0.8333333333333286
  0.8249732478392698  0.6666666666666714  0.3333333333333286
  0.8249732478392698  0.6666666666666714  0.8333333333333286
  0.8626883058831811  0.3333333333333286  0.1666666666666714
  0.8626883058831811  0.3333333333333286  0.6666666666666714
  0.8626883058831811  0.8333333333333286  0.1666666666666714
  0.8626883058831811  0.8333333333333286  0.6666666666666714
  0.9004943663108894  0.1666666666666714  0.3333333333333286
  0.9004943663108894  0.1666666666666714  0.8333333333333286
  0.9004943663108894  0.6666666666666714  0.3333333333333286
  0.9004943663108894  0.6666666666666714  0.8333333333333286
  0.4407064225042637  0.1666666666666714  0.3333333333333286
  0.4407064225042637  0.1666666666666714  0.8333333333333286
  0.4407064225042637  0.6666666666666714  0.3333333333333286
  0.4407064225042637  0.6666666666666714  0.8333333333333286
  0.4823669591930941  0.3333333333333286  0.1666666666666714
  0.4823669591930941  0.3333333333333286  0.6666666666666714
  0.4823669591930941  0.8333333333333286  0.1666666666666714
  0.4823669591930941  0.8333333333333286  0.6666666666666714
  0.9407064225042638  0.3333333333333286  0.1666666666666714
  0.9407064225042638  0.3333333333333286  0.6666666666666714
  0.9407064225042638  0.8333333333333286  0.1666666666666714
  0.9407064225042638  0.8333333333333286  0.6666666666666714
  0.9823669591930939  0.1666666666666714  0.3333333333333286
  0.9823669591930939  0.1666666666666714  0.8333333333333286
  0.9823669591930939  0.6666666666666714  0.3333333333333286
  0.9823669591930939  0.6666666666666714  0.8333333333333286
 
  0.00000000E+00  0.00000000E+00  0.00000000E+00
  0.00000000E+00  0.00000000E+00  0.00000000E+00
  0.00000000E+00  0.00000000E+00  0.00000000E+00
  0.00000000E+00  0.00000000E+00  0.00000000E+00
  0.00000000E+00  0.00000000E+00  0.00000000E+00
  0.00000000E+00  0.00000000E+00  0.00000000E+00
  0.00000000E+00  0.00000000E+00  0.00000000E+00
  0.00000000E+00  0.00000000E+00  0.00000000E+00
  0.00000000E+00  0.00000000E+00  0.00000000E+00
  0.00000000E+00  0.00000000E+00  0.00000000E+00
  0.00000000E+00  0.00000000E+00  0.00000000E+00
  0.00000000E+00  0.00000000E+00  0.00000000E+00
  0.00000000E+00  0.00000000E+00  0.00000000E+00
  0.00000000E+00  0.00000000E+00  0.00000000E+00
  0.00000000E+00  0.00000000E+00  0.00000000E+00
  0.00000000E+00  0.00000000E+00  0.00000000E+00
  0.00000000E+00  0.00000000E+00  0.00000000E+00
  0.00000000E+00  0.00000000E+00  0.00000000E+00
  0.00000000E+00  0.00000000E+00  0.00000000E+00
  0.00000000E+00  0.00000000E+00  0.00000000E+00
  0.00000000E+00  0.00000000E+00  0.00000000E+00
  0.00000000E+00  0.00000000E+00  0.00000000E+00
  0.00000000E+00  0.00000000E+00  0.00000000E+00
  0.00000000E+00  0.00000000E+00  0.00000000E+00
  0.00000000E+00  0.00000000E+00  0.00000000E+00
  0.00000000E+00  0.00000000E+00  0.00000000E+00
  0.00000000E+00  0.00000000E+00  0.00000000E+00
  0.00000000E+00  0.00000000E+00  0.00000000E+00
  0.00000000E+00  0.00000000E+00  0.00000000E+00
  0.00000000E+00  0.00000000E+00  0.00000000E+00
  0.00000000E+00  0.00000000E+00  0.00000000E+00
  0.00000000E+00  0.00000000E+00  0.00000000E+00
  0.00000000E+00  0.00000000E+00  0.00000000E+00
  0.00000000E+00  0.00000000E+00  0.00000000E+00
  0.00000000E+00  0.00000000E+00  0.00000000E+00
  0.00000000E+00  0.00000000E+00  0.00000000E+00
  0.00000000E+00  0.00000000E+00  0.00000000E+00
  0.00000000E+00  0.00000000E+00  0.00000000E+00
  0.00000000E+00  0.00000000E+00  0.00000000E+00
  0.00000000E+00  0.00000000E+00  0.00000000E+00
  0.00000000E+00  0.00000000E+00  0.00000000E+00
  0.00000000E+00  0.00000000E+00  0.00000000E+00
  0.00000000E+00  0.00000000E+00  0.00000000E+00
  0.00000000E+00  0.00000000E+00  0.00000000E+00
  0.00000000E+00  0.00000000E+00  0.00000000E+00
  0.00000000E+00  0.00000000E+00  0.00000000E+00
  0.00000000E+00  0.00000000E+00  0.00000000E+00
  0.00000000E+00  0.00000000E+00  0.00000000E+00
  0.00000000E+00  0.00000000E+00  0.00000000E+00
  0.00000000E+00  0.00000000E+00  0.00000000E+00
  0.00000000E+00  0.00000000E+00  0.00000000E+00
  0.00000000E+00  0.00000000E+00  0.00000000E+00
  0.00000000E+00  0.00000000E+00  0.00000000E+00
  0.00000000E+00  0.00000000E+00  0.00000000E+00
  0.00000000E+00  0.00000000E+00  0.00000000E+00
  0.00000000E+00  0.00000000E+00  0.00000000E+00
  0.00000000E+00  0.00000000E+00  0.00000000E+00
  0.00000000E+00  0.00000000E+00  0.00000000E+00
  0.00000000E+00  0.00000000E+00  0.00000000E+00
  0.00000000E+00  0.00000000E+00  0.00000000E+00
  0.00000000E+00  0.00000000E+00  0.00000000E+00
  0.00000000E+00  0.00000000E+00  0.00000000E+00
  0.00000000E+00  0.00000000E+00  0.00000000E+00
  0.00000000E+00  0.00000000E+00  0.00000000E+00
  0.00000000E+00  0.00000000E+00  0.00000000E+00
  0.00000000E+00  0.00000000E+00  0.00000000E+00
  0.00000000E+00  0.00000000E+00  0.00000000E+00
  0.00000000E+00  0.00000000E+00  0.00000000E+00
  0.00000000E+00  0.00000000E+00  0.00000000E+00
  0.00000000E+00  0.00000000E+00  0.00000000E+00
  0.00000000E+00  0.00000000E+00  0.00000000E+00
  0.00000000E+00  0.00000000E+00  0.00000000E+00
  0.00000000E+00  0.00000000E+00  0.00000000E+00
  0.00000000E+00  0.00000000E+00  0.00000000E+00
  0.00000000E+00  0.00000000E+00  0.00000000E+00
  0.00000000E+00  0.00000000E+00  0.00000000E+00
  0.00000000E+00  0.00000000E+00  0.00000000E+00
  0.00000000E+00  0.00000000E+00  0.00000000E+00
  0.00000000E+00  0.00000000E+00  0.00000000E+00
  0.00000000E+00  0.00000000E+00  0.00000000E+00
  0.00000000E+00  0.00000000E+00  0.00000000E+00
  0.00000000E+00  0.00000000E+00  0.00000000E+00
  0.00000000E+00  0.00000000E+00  0.00000000E+00
  0.00000000E+00  0.00000000E+00  0.00000000E+00
  0.00000000E+00  0.00000000E+00  0.00000000E+00
  0.00000000E+00  0.00000000E+00  0.00000000E+00
  0.00000000E+00  0.00000000E+00  0.00000000E+00
  0.00000000E+00  0.00000000E+00  0.00000000E+00
  0.00000000E+00  0.00000000E+00  0.00000000E+00
  0.00000000E+00  0.00000000E+00  0.00000000E+00
  0.00000000E+00  0.00000000E+00  0.00000000E+00
  0.00000000E+00  0.00000000E+00  0.00000000E+00
  0.00000000E+00  0.00000000E+00  0.00000000E+00
  0.00000000E+00  0.00000000E+00  0.00000000E+00
  0.00000000E+00  0.00000000E+00  0.00000000E+00
  0.00000000E+00  0.00000000E+00  0.00000000E+00
  0.00000000E+00  0.00000000E+00  0.00000000E+00
  0.00000000E+00  0.00000000E+00  0.00000000E+00
  0.00000000E+00  0.00000000E+00  0.00000000E+00
  0.00000000E+00  0.00000000E+00  0.00000000E+00
  0.00000000E+00  0.00000000E+00  0.00000000E+00
  0.00000000E+00  0.00000000E+00  0.00000000E+00
  0.00000000E+00  0.00000000E+00  0.00000000E+00
  0.00000000E+00  0.00000000E+00  0.00000000E+00
