generated by phonopy                    
    1.021419847420937     
    51.7487649522069617   -0.0000000000000000   -0.0000000000000000
     0.0000000000000000    5.0506448803132002   -0.0000000000000001
    -0.0000000000000000   -2.5253224401566001    4.3739867718450380
   Co   Ru
    88    16
Direct
  0.0224054491705380  0.3333333333333286  0.1666666666666714
  0.0224054491705380  0.3333333333333286  0.6666666666666714
  0.0224054491705380  0.8333333333333286  0.1666666666666714
  0.0224054491705380  0.8333333333333286  0.6666666666666714
  0.0602742366620667  0.1666666666666714  0.3333333333333286
  0.0602742366620667  0.1666666666666714  0.8333333333333286
  0.0602742366620667  0.6666666666666714  0.3333333333333286
  0.0602742366620667  0.6666666666666714  0.8333333333333286
  0.0980018581087852  0.3333333333333286  0.1666666666666714
  0.0980018581087852  0.3333333333333286  0.6666666666666714
  0.0980018581087852  0.8333333333333286  0.1666666666666714
  0.0980018581087852  0.8333333333333286  0.6666666666666714
  0.1359400782719798  0.1666666666666714  0.3333333333333286
  0.1359400782719798  0.1666666666666714  0.8333333333333286
  0.1359400782719798  0.6666666666666714  0.3333333333333286
  0.1359400782719798  0.6666666666666714  0.8333333333333286
  0.1737043209075855  0.3333333333333286  0.1666666666666714
  0.1737043209075855  0.3333333333333286  0.6666666666666714
  0.1737043209075855  0.8333333333333286  0.1666666666666714
  0.1737043209075855  0.8333333333333286  0.6666666666666714
  0.2115404109591168  0.1666666666666714  0.3333333333333286
  0.2115404109591168  0.1666666666666714  0.8333333333333286
  0.2115404109591168  0.6666666666666714  0.3333333333333286
  0.2115404109591168  0.6666666666666714  0.8333333333333286
  0.2493749703413679  0.3333333333333286  0.1666666666666714
  0.2493749703413679  0.3333333333333286  0.6666666666666714
  0.2493749703413679  0.8333333333333286  0.1666666666666714
  0.2493749703413679  0.8333333333333286  0.6666666666666714
  0.2871381660144072  0.1666666666666714  0.3333333333333286
  0.2871381660144072  0.1666666666666714  0.8333333333333286
  0.2871381660144072  0.6666666666666714  0.3333333333333286
  0.2871381660144072  0.6666666666666714  0.8333333333333286
  0.3250751039375453  0.3333333333333286  0.1666666666666714
  0.3250751039375453  0.3333333333333286  0.6666666666666714
  0.3250751039375453  0.8333333333333286  0.1666666666666714
  0.3250751039375453  0.8333333333333286  0.6666666666666714
  0.3628019621532495  0.1666666666666714  0.3333333333333286
  0.3628019621532495  0.1666666666666714  0.8333333333333286
  0.3628019621532495  0.6666666666666714  0.3333333333333286
  0.3628019621532495  0.6666666666666714  0.8333333333333286
  0.4006700617760152  0.3333333333333286  0.1666666666666714
  0.4006700617760152  0.3333333333333286  0.6666666666666714
  0.4006700617760152  0.8333333333333286  0.1666666666666714
  0.4006700617760152  0.8333333333333286  0.6666666666666714
  0.5224054491705379  0.1666666666666714  0.3333333333333286
  0.5224054491705379  0.1666666666666714  0.8333333333333286
  0.5224054491705379  0.6666666666666714  0.3333333333333286
  0.5224054491705379  0.6666666666666714  0.8333333333333286
  0.5602742366620664  0.3333333333333286  0.1666666666666714
  0.5602742366620664  0.3333333333333286  0.6666666666666714
  0.5602742366620664  0.8333333333333286  0.1666666666666714
  0.5602742366620664  0.8333333333333286  0.6666666666666714
  0.5980018581087780  0.1666666666666714  0.3333333333333286
  0.5980018581087780  0.1666666666666714  0.8333333333333286
  0.5980018581087780  0.6666666666666714  0.3333333333333286
  0.5980018581087780  0.6666666666666714  0.8333333333333286
  0.6359400782719725  0.3333333333333286  0.1666666666666714
  0.6359400782719725  0.3333333333333286  0.6666666666666714
  0.6359400782719725  0.8333333333333286  0.1666666666666714
  0.6359400782719725  0.8333333333333286  0.6666666666666714
  0.6737043209075781  0.1666666666666714  0.3333333333333286
  0.6737043209075781  0.1666666666666714  0.8333333333333286
  0.6737043209075781  0.6666666666666714  0.3333333333333286
  0.6737043209075781  0.6666666666666714  0.8333333333333286
  0.7115404109591168  0.3333333333333286  0.1666666666666714
  0.7115404109591168  0.3333333333333286  0.6666666666666714
  0.7115404109591168  0.8333333333333286  0.1666666666666714
  0.7115404109591168  0.8333333333333286  0.6666666666666714
  0.7493749703413752  0.1666666666666714  0.3333333333333286
  0.7493749703413752  0.1666666666666714  0.8333333333333286
  0.7493749703413752  0.6666666666666714  0.3333333333333286
  0.7493749703413752  0.6666666666666714  0.8333333333333286
  0.7871381660144073  0.3333333333333286  0.1666666666666714
  0.7871381660144073  0.3333333333333286  0.6666666666666714
  0.7871381660144073  0.8333333333333286  0.1666666666666714
  0.7871381660144073  0.8333333333333286  0.6666666666666714
  0.8250751039375455  0.1666666666666714  0.3333333333333286
  0.8250751039375455  0.1666666666666714  0.8333333333333286
  0.8250751039375455  0.6666666666666714  0.3333333333333286
  0.8250751039375455  0.6666666666666714  0.8333333333333286
  0.8628019621532498  0.3333333333333286  0.1666666666666714
  0.8628019621532498  0.3333333333333286  0.6666666666666714
  0.8628019621532498  0.8333333333333286  0.1666666666666714
  0.8628019621532498  0.8333333333333286  0.6666666666666714
  0.9006700617760155  0.1666666666666714  0.3333333333333286
  0.9006700617760155  0.1666666666666714  0.8333333333333286
  0.9006700617760155  0.6666666666666714  0.3333333333333286
  0.9006700617760155  0.6666666666666714  0.8333333333333286
  0.4408476674940257  0.1666666666666714  0.3333333333333286
  0.4408476674940257  0.1666666666666714  0.8333333333333286
  0.4408476674940257  0.6666666666666714  0.3333333333333286
  0.4408476674940257  0.6666666666666714  0.8333333333333286
  0.4822257142033312  0.3333333333333286  0.1666666666666714
  0.4822257142033312  0.3333333333333286  0.6666666666666714
  0.4822257142033312  0.8333333333333286  0.1666666666666714
  0.4822257142033312  0.8333333333333286  0.6666666666666714
  0.9408476674940258  0.3333333333333286  0.1666666666666714
  0.9408476674940258  0.3333333333333286  0.6666666666666714
  0.9408476674940258  0.8333333333333286  0.1666666666666714
  0.9408476674940258  0.8333333333333286  0.6666666666666714
  0.9822257142033310  0.1666666666666714  0.3333333333333286
  0.9822257142033310  0.1666666666666714  0.8333333333333286
  0.9822257142033310  0.6666666666666714  0.3333333333333286
  0.9822257142033310  0.6666666666666714  0.8333333333333286
 
  0.00000000E+00  0.00000000E+00  0.00000000E+00
  0.00000000E+00  0.00000000E+00  0.00000000E+00
  0.00000000E+00  0.00000000E+00  0.00000000E+00
  0.00000000E+00  0.00000000E+00  0.00000000E+00
  0.00000000E+00  0.00000000E+00  0.00000000E+00
  0.00000000E+00  0.00000000E+00  0.00000000E+00
  0.00000000E+00  0.00000000E+00  0.00000000E+00
  0.00000000E+00  0.00000000E+00  0.00000000E+00
  0.00000000E+00  0.00000000E+00  0.00000000E+00
  0.00000000E+00  0.00000000E+00  0.00000000E+00
  0.00000000E+00  0.00000000E+00  0.00000000E+00
  0.00000000E+00  0.00000000E+00  0.00000000E+00
  0.00000000E+00  0.00000000E+00  0.00000000E+00
  0.00000000E+00  0.00000000E+00  0.00000000E+00
  0.00000000E+00  0.00000000E+00  0.00000000E+00
  0.00000000E+00  0.00000000E+00  0.00000000E+00
  0.00000000E+00  0.00000000E+00  0.00000000E+00
  0.00000000E+00  0.00000000E+00  0.00000000E+00
  0.00000000E+00  0.00000000E+00  0.00000000E+00
  0.00000000E+00  0.00000000E+00  0.00000000E+00
  0.00000000E+00  0.00000000E+00  0.00000000E+00
  0.00000000E+00  0.00000000E+00  0.00000000E+00
  0.00000000E+00  0.00000000E+00  0.00000000E+00
  0.00000000E+00  0.00000000E+00  0.00000000E+00
  0.00000000E+00  0.00000000E+00  0.00000000E+00
  0.00000000E+00  0.00000000E+00  0.00000000E+00
  0.00000000E+00  0.00000000E+00  0.00000000E+00
  0.00000000E+00  0.00000000E+00  0.00000000E+00
  0.00000000E+00  0.00000000E+00  0.00000000E+00
  0.00000000E+00  0.00000000E+00  0.00000000E+00
  0.00000000E+00  0.00000000E+00  0.00000000E+00
  0.00000000E+00  0.00000000E+00  0.00000000E+00
  0.00000000E+00  0.00000000E+00  0.00000000E+00
  0.00000000E+00  0.00000000E+00  0.00000000E+00
  0.00000000E+00  0.00000000E+00  0.00000000E+00
  0.00000000E+00  0.00000000E+00  0.00000000E+00
  0.00000000E+00  0.00000000E+00  0.00000000E+00
  0.00000000E+00  0.00000000E+00  0.00000000E+00
  0.00000000E+00  0.00000000E+00  0.00000000E+00
  0.00000000E+00  0.00000000E+00  0.00000000E+00
  0.00000000E+00  0.00000000E+00  0.00000000E+00
  0.00000000E+00  0.00000000E+00  0.00000000E+00
  0.00000000E+00  0.00000000E+00  0.00000000E+00
  0.00000000E+00  0.00000000E+00  0.00000000E+00
  0.00000000E+00  0.00000000E+00  0.00000000E+00
  0.00000000E+00  0.00000000E+00  0.00000000E+00
  0.00000000E+00  0.00000000E+00  0.00000000E+00
  0.00000000E+00  0.00000000E+00  0.00000000E+00
  0.00000000E+00  0.00000000E+00  0.00000000E+00
  0.00000000E+00  0.00000000E+00  0.00000000E+00
  0.00000000E+00  0.00000000E+00  0.00000000E+00
  0.00000000E+00  0.00000000E+00  0.00000000E+00
  0.00000000E+00  0.00000000E+00  0.00000000E+00
  0.00000000E+00  0.00000000E+00  0.00000000E+00
  0.00000000E+00  0.00000000E+00  0.00000000E+00
  0.00000000E+00  0.00000000E+00  0.00000000E+00
  0.00000000E+00  0.00000000E+00  0.00000000E+00
  0.00000000E+00  0.00000000E+00  0.00000000E+00
  0.00000000E+00  0.00000000E+00  0.00000000E+00
  0.00000000E+00  0.00000000E+00  0.00000000E+00
  0.00000000E+00  0.00000000E+00  0.00000000E+00
  0.00000000E+00  0.00000000E+00  0.00000000E+00
  0.00000000E+00  0.00000000E+00  0.00000000E+00
  0.00000000E+00  0.00000000E+00  0.00000000E+00
  0.00000000E+00  0.00000000E+00  0.00000000E+00
  0.00000000E+00  0.00000000E+00  0.00000000E+00
  0.00000000E+00  0.00000000E+00  0.00000000E+00
  0.00000000E+00  0.00000000E+00  0.00000000E+00
  0.00000000E+00  0.00000000E+00  0.00000000E+00
  0.00000000E+00  0.00000000E+00  0.00000000E+00
  0.00000000E+00  0.00000000E+00  0.00000000E+00
  0.00000000E+00  0.00000000E+00  0.00000000E+00
  0.00000000E+00  0.00000000E+00  0.00000000E+00
  0.00000000E+00  0.00000000E+00  0.00000000E+00
  0.00000000E+00  0.00000000E+00  0.00000000E+00
  0.00000000E+00  0.00000000E+00  0.00000000E+00
  0.00000000E+00  0.00000000E+00  0.00000000E+00
  0.00000000E+00  0.00000000E+00  0.00000000E+00
  0.00000000E+00  0.00000000E+00  0.00000000E+00
  0.00000000E+00  0.00000000E+00  0.00000000E+00
  0.00000000E+00  0.00000000E+00  0.00000000E+00
  0.00000000E+00  0.00000000E+00  0.00000000E+00
  0.00000000E+00  0.00000000E+00  0.00000000E+00
  0.00000000E+00  0.00000000E+00  0.00000000E+00
  0.00000000E+00  0.00000000E+00  0.00000000E+00
  0.00000000E+00  0.00000000E+00  0.00000000E+00
  0.00000000E+00  0.00000000E+00  0.00000000E+00
  0.00000000E+00  0.00000000E+00  0.00000000E+00
  0.00000000E+00  0.00000000E+00  0.00000000E+00
  0.00000000E+00  0.00000000E+00  0.00000000E+00
  0.00000000E+00  0.00000000E+00  0.00000000E+00
  0.00000000E+00  0.00000000E+00  0.00000000E+00
  0.00000000E+00  0.00000000E+00  0.00000000E+00
  0.00000000E+00  0.00000000E+00  0.00000000E+00
  0.00000000E+00  0.00000000E+00  0.00000000E+00
  0.00000000E+00  0.00000000E+00  0.00000000E+00
  0.00000000E+00  0.00000000E+00  0.00000000E+00
  0.00000000E+00  0.00000000E+00  0.00000000E+00
  0.00000000E+00  0.00000000E+00  0.00000000E+00
  0.00000000E+00  0.00000000E+00  0.00000000E+00
  0.00000000E+00  0.00000000E+00  0.00000000E+00
  0.00000000E+00  0.00000000E+00  0.00000000E+00
  0.00000000E+00  0.00000000E+00  0.00000000E+00
  0.00000000E+00  0.00000000E+00  0.00000000E+00
