generated by phonopy                    
    1.007889514579597     
    51.7348903178959389    0.0000000000000000   -0.0000000000000000
    -0.0000000000000000    5.0513220940135444   -0.0000000000000001
    -0.0000000000000000   -2.5256610470067722    4.3745732561133321
   Co   Ru
    88    16
Direct
  0.0226934250388415  0.3333333333333286  0.1666666666666714
  0.0226934250388415  0.3333333333333286  0.6666666666666714
  0.0226934250388415  0.8333333333333286  0.1666666666666714
  0.0226934250388415  0.8333333333333286  0.6666666666666714
  0.0604165433334136  0.1666666666666714  0.3333333333333286
  0.0604165433334136  0.1666666666666714  0.8333333333333286
  0.0604165433334136  0.6666666666666714  0.3333333333333286
  0.0604165433334136  0.6666666666666714  0.8333333333333286
  0.0981234998164031  0.3333333333333286  0.1666666666666714
  0.0981234998164031  0.3333333333333286  0.6666666666666714
  0.0981234998164031  0.8333333333333286  0.1666666666666714
  0.0981234998164031  0.8333333333333286  0.6666666666666714
  0.1359726949394730  0.1666666666666714  0.3333333333333286
  0.1359726949394730  0.1666666666666714  0.8333333333333286
  0.1359726949394730  0.6666666666666714  0.3333333333333286
  0.1359726949394730  0.6666666666666714  0.8333333333333286
  0.1737433169399175  0.3333333333333286  0.1666666666666714
  0.1737433169399175  0.3333333333333286  0.6666666666666714
  0.1737433169399175  0.8333333333333286  0.1666666666666714
  0.1737433169399175  0.8333333333333286  0.6666666666666714
  0.2115421834111403  0.1666666666666714  0.3333333333333286
  0.2115421834111403  0.1666666666666714  0.8333333333333286
  0.2115421834111403  0.6666666666666714  0.3333333333333286
  0.2115421834111403  0.6666666666666714  0.8333333333333286
  0.2493396140392868  0.3333333333333286  0.1666666666666714
  0.2493396140392868  0.3333333333333286  0.6666666666666714
  0.2493396140392868  0.8333333333333286  0.1666666666666714
  0.2493396140392868  0.8333333333333286  0.6666666666666714
  0.2871068604271085  0.1666666666666714  0.3333333333333286
  0.2871068604271085  0.1666666666666714  0.8333333333333286
  0.2871068604271085  0.6666666666666714  0.3333333333333286
  0.2871068604271085  0.6666666666666714  0.8333333333333286
  0.3249532844132686  0.3333333333333286  0.1666666666666714
  0.3249532844132686  0.3333333333333286  0.6666666666666714
  0.3249532844132686  0.8333333333333286  0.1666666666666714
  0.3249532844132686  0.8333333333333286  0.6666666666666714
  0.3626585222724596  0.1666666666666714  0.3333333333333286
  0.3626585222724596  0.1666666666666714  0.8333333333333286
  0.3626585222724596  0.6666666666666714  0.3333333333333286
  0.3626585222724596  0.6666666666666714  0.8333333333333286
  0.4003797198591868  0.3333333333333286  0.1666666666666714
  0.4003797198591868  0.3333333333333286  0.6666666666666714
  0.4003797198591868  0.8333333333333286  0.1666666666666714
  0.4003797198591868  0.8333333333333286  0.6666666666666714
  0.5226934250388418  0.1666666666666714  0.3333333333333286
  0.5226934250388418  0.1666666666666714  0.8333333333333286
  0.5226934250388418  0.6666666666666714  0.3333333333333286
  0.5226934250388418  0.6666666666666714  0.8333333333333286
  0.5604165433334131  0.3333333333333286  0.1666666666666714
  0.5604165433334131  0.3333333333333286  0.6666666666666714
  0.5604165433334131  0.8333333333333286  0.1666666666666714
  0.5604165433334131  0.8333333333333286  0.6666666666666714
  0.5981234998163960  0.1666666666666714  0.3333333333333286
  0.5981234998163960  0.1666666666666714  0.8333333333333286
  0.5981234998163960  0.6666666666666714  0.3333333333333286
  0.5981234998163960  0.6666666666666714  0.8333333333333286
  0.6359726949394661  0.3333333333333286  0.1666666666666714
  0.6359726949394661  0.3333333333333286  0.6666666666666714
  0.6359726949394661  0.8333333333333286  0.1666666666666714
  0.6359726949394661  0.8333333333333286  0.6666666666666714
  0.6737433169399180  0.1666666666666714  0.3333333333333286
  0.6737433169399180  0.1666666666666714  0.8333333333333286
  0.6737433169399180  0.6666666666666714  0.3333333333333286
  0.6737433169399180  0.6666666666666714  0.8333333333333286
  0.7115421834111400  0.3333333333333286  0.1666666666666714
  0.7115421834111400  0.3333333333333286  0.6666666666666714
  0.7115421834111400  0.8333333333333286  0.1666666666666714
  0.7115421834111400  0.8333333333333286  0.6666666666666714
  0.7493396140392868  0.1666666666666714  0.3333333333333286
  0.7493396140392868  0.1666666666666714  0.8333333333333286
  0.7493396140392868  0.6666666666666714  0.3333333333333286
  0.7493396140392868  0.6666666666666714  0.8333333333333286
  0.7871068604271082  0.3333333333333286  0.1666666666666714
  0.7871068604271082  0.3333333333333286  0.6666666666666714
  0.7871068604271082  0.8333333333333286  0.1666666666666714
  0.7871068604271082  0.8333333333333286  0.6666666666666714
  0.8249532844132680  0.1666666666666714  0.3333333333333286
  0.8249532844132680  0.1666666666666714  0.8333333333333286
  0.8249532844132680  0.6666666666666714  0.3333333333333286
  0.8249532844132680  0.6666666666666714  0.8333333333333286
  0.8626585222724596  0.3333333333333286  0.1666666666666714
  0.8626585222724596  0.3333333333333286  0.6666666666666714
  0.8626585222724596  0.8333333333333286  0.1666666666666714
  0.8626585222724596  0.8333333333333286  0.6666666666666714
  0.9003797198591871  0.1666666666666714  0.3333333333333286
  0.9003797198591871  0.1666666666666714  0.8333333333333286
  0.9003797198591871  0.6666666666666714  0.3333333333333286
  0.9003797198591871  0.6666666666666714  0.8333333333333286
  0.4405795990920330  0.1666666666666714  0.3333333333333286
  0.4405795990920330  0.1666666666666714  0.8333333333333286
  0.4405795990920330  0.6666666666666714  0.3333333333333286
  0.4405795990920330  0.6666666666666714  0.8333333333333286
  0.4824907364174885  0.3333333333333286  0.1666666666666714
  0.4824907364174885  0.3333333333333286  0.6666666666666714
  0.4824907364174885  0.8333333333333286  0.1666666666666714
  0.4824907364174885  0.8333333333333286  0.6666666666666714
  0.9405795990920324  0.3333333333333286  0.1666666666666714
  0.9405795990920324  0.3333333333333286  0.6666666666666714
  0.9405795990920324  0.8333333333333286  0.1666666666666714
  0.9405795990920324  0.8333333333333286  0.6666666666666714
  0.9824907364174883  0.1666666666666714  0.3333333333333286
  0.9824907364174883  0.1666666666666714  0.8333333333333286
  0.9824907364174883  0.6666666666666714  0.3333333333333286
  0.9824907364174883  0.6666666666666714  0.8333333333333286
 
  0.00000000E+00  0.00000000E+00  0.00000000E+00
  0.00000000E+00  0.00000000E+00  0.00000000E+00
  0.00000000E+00  0.00000000E+00  0.00000000E+00
  0.00000000E+00  0.00000000E+00  0.00000000E+00
  0.00000000E+00  0.00000000E+00  0.00000000E+00
  0.00000000E+00  0.00000000E+00  0.00000000E+00
  0.00000000E+00  0.00000000E+00  0.00000000E+00
  0.00000000E+00  0.00000000E+00  0.00000000E+00
  0.00000000E+00  0.00000000E+00  0.00000000E+00
  0.00000000E+00  0.00000000E+00  0.00000000E+00
  0.00000000E+00  0.00000000E+00  0.00000000E+00
  0.00000000E+00  0.00000000E+00  0.00000000E+00
  0.00000000E+00  0.00000000E+00  0.00000000E+00
  0.00000000E+00  0.00000000E+00  0.00000000E+00
  0.00000000E+00  0.00000000E+00  0.00000000E+00
  0.00000000E+00  0.00000000E+00  0.00000000E+00
  0.00000000E+00  0.00000000E+00  0.00000000E+00
  0.00000000E+00  0.00000000E+00  0.00000000E+00
  0.00000000E+00  0.00000000E+00  0.00000000E+00
  0.00000000E+00  0.00000000E+00  0.00000000E+00
  0.00000000E+00  0.00000000E+00  0.00000000E+00
  0.00000000E+00  0.00000000E+00  0.00000000E+00
  0.00000000E+00  0.00000000E+00  0.00000000E+00
  0.00000000E+00  0.00000000E+00  0.00000000E+00
  0.00000000E+00  0.00000000E+00  0.00000000E+00
  0.00000000E+00  0.00000000E+00  0.00000000E+00
  0.00000000E+00  0.00000000E+00  0.00000000E+00
  0.00000000E+00  0.00000000E+00  0.00000000E+00
  0.00000000E+00  0.00000000E+00  0.00000000E+00
  0.00000000E+00  0.00000000E+00  0.00000000E+00
  0.00000000E+00  0.00000000E+00  0.00000000E+00
  0.00000000E+00  0.00000000E+00  0.00000000E+00
  0.00000000E+00  0.00000000E+00  0.00000000E+00
  0.00000000E+00  0.00000000E+00  0.00000000E+00
  0.00000000E+00  0.00000000E+00  0.00000000E+00
  0.00000000E+00  0.00000000E+00  0.00000000E+00
  0.00000000E+00  0.00000000E+00  0.00000000E+00
  0.00000000E+00  0.00000000E+00  0.00000000E+00
  0.00000000E+00  0.00000000E+00  0.00000000E+00
  0.00000000E+00  0.00000000E+00  0.00000000E+00
  0.00000000E+00  0.00000000E+00  0.00000000E+00
  0.00000000E+00  0.00000000E+00  0.00000000E+00
  0.00000000E+00  0.00000000E+00  0.00000000E+00
  0.00000000E+00  0.00000000E+00  0.00000000E+00
  0.00000000E+00  0.00000000E+00  0.00000000E+00
  0.00000000E+00  0.00000000E+00  0.00000000E+00
  0.00000000E+00  0.00000000E+00  0.00000000E+00
  0.00000000E+00  0.00000000E+00  0.00000000E+00
  0.00000000E+00  0.00000000E+00  0.00000000E+00
  0.00000000E+00  0.00000000E+00  0.00000000E+00
  0.00000000E+00  0.00000000E+00  0.00000000E+00
  0.00000000E+00  0.00000000E+00  0.00000000E+00
  0.00000000E+00  0.00000000E+00  0.00000000E+00
  0.00000000E+00  0.00000000E+00  0.00000000E+00
  0.00000000E+00  0.00000000E+00  0.00000000E+00
  0.00000000E+00  0.00000000E+00  0.00000000E+00
  0.00000000E+00  0.00000000E+00  0.00000000E+00
  0.00000000E+00  0.00000000E+00  0.00000000E+00
  0.00000000E+00  0.00000000E+00  0.00000000E+00
  0.00000000E+00  0.00000000E+00  0.00000000E+00
  0.00000000E+00  0.00000000E+00  0.00000000E+00
  0.00000000E+00  0.00000000E+00  0.00000000E+00
  0.00000000E+00  0.00000000E+00  0.00000000E+00
  0.00000000E+00  0.00000000E+00  0.00000000E+00
  0.00000000E+00  0.00000000E+00  0.00000000E+00
  0.00000000E+00  0.00000000E+00  0.00000000E+00
  0.00000000E+00  0.00000000E+00  0.00000000E+00
  0.00000000E+00  0.00000000E+00  0.00000000E+00
  0.00000000E+00  0.00000000E+00  0.00000000E+00
  0.00000000E+00  0.00000000E+00  0.00000000E+00
  0.00000000E+00  0.00000000E+00  0.00000000E+00
  0.00000000E+00  0.00000000E+00  0.00000000E+00
  0.00000000E+00  0.00000000E+00  0.00000000E+00
  0.00000000E+00  0.00000000E+00  0.00000000E+00
  0.00000000E+00  0.00000000E+00  0.00000000E+00
  0.00000000E+00  0.00000000E+00  0.00000000E+00
  0.00000000E+00  0.00000000E+00  0.00000000E+00
  0.00000000E+00  0.00000000E+00  0.00000000E+00
  0.00000000E+00  0.00000000E+00  0.00000000E+00
  0.00000000E+00  0.00000000E+00  0.00000000E+00
  0.00000000E+00  0.00000000E+00  0.00000000E+00
  0.00000000E+00  0.00000000E+00  0.00000000E+00
  0.00000000E+00  0.00000000E+00  0.00000000E+00
  0.00000000E+00  0.00000000E+00  0.00000000E+00
  0.00000000E+00  0.00000000E+00  0.00000000E+00
  0.00000000E+00  0.00000000E+00  0.00000000E+00
  0.00000000E+00  0.00000000E+00  0.00000000E+00
  0.00000000E+00  0.00000000E+00  0.00000000E+00
  0.00000000E+00  0.00000000E+00  0.00000000E+00
  0.00000000E+00  0.00000000E+00  0.00000000E+00
  0.00000000E+00  0.00000000E+00  0.00000000E+00
  0.00000000E+00  0.00000000E+00  0.00000000E+00
  0.00000000E+00  0.00000000E+00  0.00000000E+00
  0.00000000E+00  0.00000000E+00  0.00000000E+00
  0.00000000E+00  0.00000000E+00  0.00000000E+00
  0.00000000E+00  0.00000000E+00  0.00000000E+00
  0.00000000E+00  0.00000000E+00  0.00000000E+00
  0.00000000E+00  0.00000000E+00  0.00000000E+00
  0.00000000E+00  0.00000000E+00  0.00000000E+00
  0.00000000E+00  0.00000000E+00  0.00000000E+00
  0.00000000E+00  0.00000000E+00  0.00000000E+00
  0.00000000E+00  0.00000000E+00  0.00000000E+00
  0.00000000E+00  0.00000000E+00  0.00000000E+00
  0.00000000E+00  0.00000000E+00  0.00000000E+00
