generated by phonopy                    
  0.996588374044529     
    36.2855558306811687    0.0000000000000000    0.0000000000000000
     0.0000000000000000    5.1586010616083842   -0.0000000000000002
    -0.0000000000000000   -2.5793005308041930    4.4674795673422354
   Co   Ru
    56    16
Direct
  0.0322003452598030  0.3333333333333286  0.1666666666666714
  0.0322003452598030  0.3333333333333286  0.6666666666666714
  0.0322003452598030  0.8333333333333286  0.1666666666666714
  0.0322003452598030  0.8333333333333286  0.6666666666666714
  0.0860596287091686  0.1666666666666714  0.3333333333333286
  0.0860596287091686  0.1666666666666714  0.8333333333333286
  0.0860596287091686  0.6666666666666714  0.3333333333333286
  0.0860596287091686  0.6666666666666714  0.8333333333333286
  0.1402350797348109  0.3333333333333286  0.1666666666666714
  0.1402350797348109  0.3333333333333286  0.6666666666666714
  0.1402350797348109  0.8333333333333286  0.1666666666666714
  0.1402350797348109  0.8333333333333286  0.6666666666666714
  0.1944457475387011  0.1666666666666714  0.3333333333333286
  0.1944457475387011  0.1666666666666714  0.8333333333333286
  0.1944457475387011  0.6666666666666714  0.3333333333333286
  0.1944457475387011  0.6666666666666714  0.8333333333333286
  0.2486564657271981  0.3333333333333286  0.1666666666666714
  0.2486564657271981  0.3333333333333286  0.6666666666666714
  0.2486564657271981  0.8333333333333286  0.1666666666666714
  0.2486564657271981  0.8333333333333286  0.6666666666666714
  0.3028298779372672  0.1666666666666714  0.3333333333333286
  0.3028298779372672  0.1666666666666714  0.8333333333333286
  0.3028298779372672  0.6666666666666714  0.3333333333333286
  0.3028298779372672  0.6666666666666714  0.8333333333333286
  0.3566877366536114  0.3333333333333286  0.1666666666666714
  0.3566877366536114  0.3333333333333286  0.6666666666666714
  0.3566877366536114  0.8333333333333286  0.1666666666666714
  0.3566877366536114  0.8333333333333286  0.6666666666666714
  0.5322003452598097  0.1666666666666714  0.3333333333333286
  0.5322003452598097  0.1666666666666714  0.8333333333333286
  0.5322003452598097  0.6666666666666714  0.3333333333333286
  0.5322003452598097  0.6666666666666714  0.8333333333333286
  0.5860596287091542  0.3333333333333286  0.1666666666666714
  0.5860596287091542  0.3333333333333286  0.6666666666666714
  0.5860596287091542  0.8333333333333286  0.1666666666666714
  0.5860596287091542  0.8333333333333286  0.6666666666666714
  0.6402350797348113  0.1666666666666714  0.3333333333333286
  0.6402350797348113  0.1666666666666714  0.8333333333333286
  0.6402350797348113  0.6666666666666714  0.3333333333333286
  0.6402350797348113  0.6666666666666714  0.8333333333333286
  0.6944457475387011  0.3333333333333286  0.1666666666666714
  0.6944457475387011  0.3333333333333286  0.6666666666666714
  0.6944457475387011  0.8333333333333286  0.1666666666666714
  0.6944457475387011  0.8333333333333286  0.6666666666666714
  0.7486564657271977  0.1666666666666714  0.3333333333333286
  0.7486564657271977  0.1666666666666714  0.8333333333333286
  0.7486564657271977  0.6666666666666714  0.3333333333333286
  0.7486564657271977  0.6666666666666714  0.8333333333333286
  0.8028298779372673  0.3333333333333286  0.1666666666666714
  0.8028298779372673  0.3333333333333286  0.6666666666666714
  0.8028298779372673  0.8333333333333286  0.1666666666666714
  0.8028298779372673  0.8333333333333286  0.6666666666666714
  0.8566877366536118  0.1666666666666714  0.3333333333333286
  0.8566877366536118  0.1666666666666714  0.8333333333333286
  0.8566877366536118  0.6666666666666714  0.3333333333333286
  0.8566877366536118  0.6666666666666714  0.8333333333333286
  0.4143868238262688  0.1666666666666714  0.3333333333333286
  0.4143868238262688  0.1666666666666714  0.8333333333333286
  0.4143868238262688  0.6666666666666714  0.3333333333333286
  0.4143868238262688  0.6666666666666714  0.8333333333333286
  0.4744982946131709  0.3333333333333286  0.1666666666666714
  0.4744982946131709  0.3333333333333286  0.6666666666666714
  0.4744982946131709  0.8333333333333286  0.1666666666666714
  0.4744982946131709  0.8333333333333286  0.6666666666666714
  0.9143868238262624  0.3333333333333286  0.1666666666666714
  0.9143868238262624  0.3333333333333286  0.6666666666666714
  0.9143868238262624  0.8333333333333286  0.1666666666666714
  0.9143868238262624  0.8333333333333286  0.6666666666666714
  0.9744982946131703  0.1666666666666714  0.3333333333333286
  0.9744982946131703  0.1666666666666714  0.8333333333333286
  0.9744982946131703  0.6666666666666714  0.3333333333333286
  0.9744982946131703  0.6666666666666714  0.8333333333333286
 
  0.00000000E+00  0.00000000E+00  0.00000000E+00
  0.00000000E+00  0.00000000E+00  0.00000000E+00
  0.00000000E+00  0.00000000E+00  0.00000000E+00
  0.00000000E+00  0.00000000E+00  0.00000000E+00
  0.00000000E+00  0.00000000E+00  0.00000000E+00
  0.00000000E+00  0.00000000E+00  0.00000000E+00
  0.00000000E+00  0.00000000E+00  0.00000000E+00
  0.00000000E+00  0.00000000E+00  0.00000000E+00
  0.00000000E+00  0.00000000E+00  0.00000000E+00
  0.00000000E+00  0.00000000E+00  0.00000000E+00
  0.00000000E+00  0.00000000E+00  0.00000000E+00
  0.00000000E+00  0.00000000E+00  0.00000000E+00
  0.00000000E+00  0.00000000E+00  0.00000000E+00
  0.00000000E+00  0.00000000E+00  0.00000000E+00
  0.00000000E+00  0.00000000E+00  0.00000000E+00
  0.00000000E+00  0.00000000E+00  0.00000000E+00
  0.00000000E+00  0.00000000E+00  0.00000000E+00
  0.00000000E+00  0.00000000E+00  0.00000000E+00
  0.00000000E+00  0.00000000E+00  0.00000000E+00
  0.00000000E+00  0.00000000E+00  0.00000000E+00
  0.00000000E+00  0.00000000E+00  0.00000000E+00
  0.00000000E+00  0.00000000E+00  0.00000000E+00
  0.00000000E+00  0.00000000E+00  0.00000000E+00
  0.00000000E+00  0.00000000E+00  0.00000000E+00
  0.00000000E+00  0.00000000E+00  0.00000000E+00
  0.00000000E+00  0.00000000E+00  0.00000000E+00
  0.00000000E+00  0.00000000E+00  0.00000000E+00
  0.00000000E+00  0.00000000E+00  0.00000000E+00
  0.00000000E+00  0.00000000E+00  0.00000000E+00
  0.00000000E+00  0.00000000E+00  0.00000000E+00
  0.00000000E+00  0.00000000E+00  0.00000000E+00
  0.00000000E+00  0.00000000E+00  0.00000000E+00
  0.00000000E+00  0.00000000E+00  0.00000000E+00
  0.00000000E+00  0.00000000E+00  0.00000000E+00
  0.00000000E+00  0.00000000E+00  0.00000000E+00
  0.00000000E+00  0.00000000E+00  0.00000000E+00
  0.00000000E+00  0.00000000E+00  0.00000000E+00
  0.00000000E+00  0.00000000E+00  0.00000000E+00
  0.00000000E+00  0.00000000E+00  0.00000000E+00
  0.00000000E+00  0.00000000E+00  0.00000000E+00
  0.00000000E+00  0.00000000E+00  0.00000000E+00
  0.00000000E+00  0.00000000E+00  0.00000000E+00
  0.00000000E+00  0.00000000E+00  0.00000000E+00
  0.00000000E+00  0.00000000E+00  0.00000000E+00
  0.00000000E+00  0.00000000E+00  0.00000000E+00
  0.00000000E+00  0.00000000E+00  0.00000000E+00
  0.00000000E+00  0.00000000E+00  0.00000000E+00
  0.00000000E+00  0.00000000E+00  0.00000000E+00
  0.00000000E+00  0.00000000E+00  0.00000000E+00
  0.00000000E+00  0.00000000E+00  0.00000000E+00
  0.00000000E+00  0.00000000E+00  0.00000000E+00
  0.00000000E+00  0.00000000E+00  0.00000000E+00
  0.00000000E+00  0.00000000E+00  0.00000000E+00
  0.00000000E+00  0.00000000E+00  0.00000000E+00
  0.00000000E+00  0.00000000E+00  0.00000000E+00
  0.00000000E+00  0.00000000E+00  0.00000000E+00
  0.00000000E+00  0.00000000E+00  0.00000000E+00
  0.00000000E+00  0.00000000E+00  0.00000000E+00
  0.00000000E+00  0.00000000E+00  0.00000000E+00
  0.00000000E+00  0.00000000E+00  0.00000000E+00
  0.00000000E+00  0.00000000E+00  0.00000000E+00
  0.00000000E+00  0.00000000E+00  0.00000000E+00
  0.00000000E+00  0.00000000E+00  0.00000000E+00
  0.00000000E+00  0.00000000E+00  0.00000000E+00
  0.00000000E+00  0.00000000E+00  0.00000000E+00
  0.00000000E+00  0.00000000E+00  0.00000000E+00
  0.00000000E+00  0.00000000E+00  0.00000000E+00
  0.00000000E+00  0.00000000E+00  0.00000000E+00
  0.00000000E+00  0.00000000E+00  0.00000000E+00
  0.00000000E+00  0.00000000E+00  0.00000000E+00
  0.00000000E+00  0.00000000E+00  0.00000000E+00
  0.00000000E+00  0.00000000E+00  0.00000000E+00
