generated by phonopy                    
    1.007957395069740     
    51.8137878519946327   -0.0000000000000000    0.0000000000000000
     0.0000000000000000    5.0014368058396625    0.0000000000000000
    -0.0000000000000000   -2.5007184029198313    4.3313713292796532
   Co   Ru
    96     8
Direct
  0.0210980123739372  0.3333333333333286  0.1666666666666714
  0.0210980123739372  0.3333333333333286  0.6666666666666714
  0.0210980123739372  0.8333333333333286  0.1666666666666714
  0.0210980123739372  0.8333333333333286  0.6666666666666714
  0.0590513950179004  0.1666666666666714  0.3333333333333286
  0.0590513950179004  0.1666666666666714  0.8333333333333286
  0.0590513950179004  0.6666666666666714  0.3333333333333286
  0.0590513950179004  0.6666666666666714  0.8333333333333286
  0.0971944142167070  0.3333333333333286  0.1666666666666714
  0.0971944142167070  0.3333333333333286  0.6666666666666714
  0.0971944142167070  0.8333333333333286  0.1666666666666714
  0.0971944142167070  0.8333333333333286  0.6666666666666714
  0.1353304823308153  0.1666666666666714  0.3333333333333286
  0.1353304823308153  0.1666666666666714  0.8333333333333286
  0.1353304823308153  0.6666666666666714  0.3333333333333286
  0.1353304823308153  0.6666666666666714  0.8333333333333286
  0.1735394227048428  0.3333333333333286  0.1666666666666714
  0.1735394227048428  0.3333333333333286  0.6666666666666714
  0.1735394227048428  0.8333333333333286  0.1666666666666714
  0.1735394227048428  0.8333333333333286  0.6666666666666714
  0.2116982097627347  0.1666666666666714  0.3333333333333286
  0.2116982097627347  0.1666666666666714  0.8333333333333286
  0.2116982097627347  0.6666666666666714  0.3333333333333286
  0.2116982097627347  0.6666666666666714  0.8333333333333286
  0.2498402517757252  0.3333333333333286  0.1666666666666714
  0.2498402517757252  0.3333333333333286  0.6666666666666714
  0.2498402517757252  0.8333333333333286  0.1666666666666714
  0.2498402517757252  0.8333333333333286  0.6666666666666714
  0.2879990388336171  0.1666666666666714  0.3333333333333286
  0.2879990388336171  0.1666666666666714  0.8333333333333286
  0.2879990388336171  0.6666666666666714  0.3333333333333286
  0.2879990388336171  0.6666666666666714  0.8333333333333286
  0.3262079792076517  0.3333333333333286  0.1666666666666714
  0.3262079792076517  0.3333333333333286  0.6666666666666714
  0.3262079792076517  0.8333333333333286  0.1666666666666714
  0.3262079792076517  0.8333333333333286  0.6666666666666714
  0.3643440473217600  0.1666666666666714  0.3333333333333286
  0.3643440473217600  0.1666666666666714  0.8333333333333286
  0.3643440473217600  0.6666666666666714  0.3333333333333286
  0.3643440473217600  0.6666666666666714  0.8333333333333286
  0.4024870665205595  0.3333333333333286  0.1666666666666714
  0.4024870665205595  0.3333333333333286  0.6666666666666714
  0.4024870665205595  0.8333333333333286  0.1666666666666714
  0.4024870665205595  0.8333333333333286  0.6666666666666714
  0.4404404491645227  0.1666666666666714  0.3333333333333286
  0.4404404491645227  0.1666666666666714  0.8333333333333286
  0.4404404491645227  0.6666666666666714  0.3333333333333286
  0.4404404491645227  0.6666666666666714  0.8333333333333286
  0.5210980123739372  0.1666666666666714  0.3333333333333286
  0.5210980123739372  0.1666666666666714  0.8333333333333286
  0.5210980123739372  0.6666666666666714  0.3333333333333286
  0.5210980123739372  0.6666666666666714  0.8333333333333286
  0.5590513950179004  0.3333333333333286  0.1666666666666714
  0.5590513950179004  0.3333333333333286  0.6666666666666714
  0.5590513950179004  0.8333333333333286  0.1666666666666714
  0.5590513950179004  0.8333333333333286  0.6666666666666714
  0.5971944142166999  0.1666666666666714  0.3333333333333286
  0.5971944142166999  0.1666666666666714  0.8333333333333286
  0.5971944142166999  0.6666666666666714  0.3333333333333286
  0.5971944142166999  0.6666666666666714  0.8333333333333286
  0.6353304823308152  0.3333333333333286  0.1666666666666714
  0.6353304823308152  0.3333333333333286  0.6666666666666714
  0.6353304823308152  0.8333333333333286  0.1666666666666714
  0.6353304823308152  0.8333333333333286  0.6666666666666714
  0.6735394227048428  0.1666666666666714  0.3333333333333286
  0.6735394227048428  0.1666666666666714  0.8333333333333286
  0.6735394227048428  0.6666666666666714  0.3333333333333286
  0.6735394227048428  0.6666666666666714  0.8333333333333286
  0.7116982097627346  0.3333333333333286  0.1666666666666714
  0.7116982097627346  0.3333333333333286  0.6666666666666714
  0.7116982097627346  0.8333333333333286  0.1666666666666714
  0.7116982097627346  0.8333333333333286  0.6666666666666714
  0.7498402517757253  0.1666666666666714  0.3333333333333286
  0.7498402517757253  0.1666666666666714  0.8333333333333286
  0.7498402517757253  0.6666666666666714  0.3333333333333286
  0.7498402517757253  0.6666666666666714  0.8333333333333286
  0.7879990388336171  0.3333333333333286  0.1666666666666714
  0.7879990388336171  0.3333333333333286  0.6666666666666714
  0.7879990388336171  0.8333333333333286  0.1666666666666714
  0.7879990388336171  0.8333333333333286  0.6666666666666714
  0.8262079792076518  0.1666666666666714  0.3333333333333286
  0.8262079792076518  0.1666666666666714  0.8333333333333286
  0.8262079792076518  0.6666666666666714  0.3333333333333286
  0.8262079792076518  0.6666666666666714  0.8333333333333286
  0.8643440473217600  0.3333333333333286  0.1666666666666714
  0.8643440473217600  0.3333333333333286  0.6666666666666714
  0.8643440473217600  0.8333333333333286  0.1666666666666714
  0.8643440473217600  0.8333333333333286  0.6666666666666714
  0.9024870665205595  0.1666666666666714  0.3333333333333286
  0.9024870665205595  0.1666666666666714  0.8333333333333286
  0.9024870665205595  0.6666666666666714  0.3333333333333286
  0.9024870665205595  0.6666666666666714  0.8333333333333286
  0.9404404491645227  0.3333333333333286  0.1666666666666714
  0.9404404491645227  0.3333333333333286  0.6666666666666714
  0.9404404491645227  0.8333333333333286  0.1666666666666714
  0.9404404491645227  0.8333333333333286  0.6666666666666714
  0.4807692307692335  0.3333333333333286  0.1666666666666714
  0.4807692307692335  0.3333333333333286  0.6666666666666714
  0.4807692307692335  0.8333333333333286  0.1666666666666714
  0.4807692307692335  0.8333333333333286  0.6666666666666714
  0.9807692307692335  0.1666666666666714  0.3333333333333286
  0.9807692307692335  0.1666666666666714  0.8333333333333286
  0.9807692307692335  0.6666666666666714  0.3333333333333286
  0.9807692307692335  0.6666666666666714  0.8333333333333286
 
  0.00000000E+00  0.00000000E+00  0.00000000E+00
  0.00000000E+00  0.00000000E+00  0.00000000E+00
  0.00000000E+00  0.00000000E+00  0.00000000E+00
  0.00000000E+00  0.00000000E+00  0.00000000E+00
  0.00000000E+00  0.00000000E+00  0.00000000E+00
  0.00000000E+00  0.00000000E+00  0.00000000E+00
  0.00000000E+00  0.00000000E+00  0.00000000E+00
  0.00000000E+00  0.00000000E+00  0.00000000E+00
  0.00000000E+00  0.00000000E+00  0.00000000E+00
  0.00000000E+00  0.00000000E+00  0.00000000E+00
  0.00000000E+00  0.00000000E+00  0.00000000E+00
  0.00000000E+00  0.00000000E+00  0.00000000E+00
  0.00000000E+00  0.00000000E+00  0.00000000E+00
  0.00000000E+00  0.00000000E+00  0.00000000E+00
  0.00000000E+00  0.00000000E+00  0.00000000E+00
  0.00000000E+00  0.00000000E+00  0.00000000E+00
  0.00000000E+00  0.00000000E+00  0.00000000E+00
  0.00000000E+00  0.00000000E+00  0.00000000E+00
  0.00000000E+00  0.00000000E+00  0.00000000E+00
  0.00000000E+00  0.00000000E+00  0.00000000E+00
  0.00000000E+00  0.00000000E+00  0.00000000E+00
  0.00000000E+00  0.00000000E+00  0.00000000E+00
  0.00000000E+00  0.00000000E+00  0.00000000E+00
  0.00000000E+00  0.00000000E+00  0.00000000E+00
  0.00000000E+00  0.00000000E+00  0.00000000E+00
  0.00000000E+00  0.00000000E+00  0.00000000E+00
  0.00000000E+00  0.00000000E+00  0.00000000E+00
  0.00000000E+00  0.00000000E+00  0.00000000E+00
  0.00000000E+00  0.00000000E+00  0.00000000E+00
  0.00000000E+00  0.00000000E+00  0.00000000E+00
  0.00000000E+00  0.00000000E+00  0.00000000E+00
  0.00000000E+00  0.00000000E+00  0.00000000E+00
  0.00000000E+00  0.00000000E+00  0.00000000E+00
  0.00000000E+00  0.00000000E+00  0.00000000E+00
  0.00000000E+00  0.00000000E+00  0.00000000E+00
  0.00000000E+00  0.00000000E+00  0.00000000E+00
  0.00000000E+00  0.00000000E+00  0.00000000E+00
  0.00000000E+00  0.00000000E+00  0.00000000E+00
  0.00000000E+00  0.00000000E+00  0.00000000E+00
  0.00000000E+00  0.00000000E+00  0.00000000E+00
  0.00000000E+00  0.00000000E+00  0.00000000E+00
  0.00000000E+00  0.00000000E+00  0.00000000E+00
  0.00000000E+00  0.00000000E+00  0.00000000E+00
  0.00000000E+00  0.00000000E+00  0.00000000E+00
  0.00000000E+00  0.00000000E+00  0.00000000E+00
  0.00000000E+00  0.00000000E+00  0.00000000E+00
  0.00000000E+00  0.00000000E+00  0.00000000E+00
  0.00000000E+00  0.00000000E+00  0.00000000E+00
  0.00000000E+00  0.00000000E+00  0.00000000E+00
  0.00000000E+00  0.00000000E+00  0.00000000E+00
  0.00000000E+00  0.00000000E+00  0.00000000E+00
  0.00000000E+00  0.00000000E+00  0.00000000E+00
  0.00000000E+00  0.00000000E+00  0.00000000E+00
  0.00000000E+00  0.00000000E+00  0.00000000E+00
  0.00000000E+00  0.00000000E+00  0.00000000E+00
  0.00000000E+00  0.00000000E+00  0.00000000E+00
  0.00000000E+00  0.00000000E+00  0.00000000E+00
  0.00000000E+00  0.00000000E+00  0.00000000E+00
  0.00000000E+00  0.00000000E+00  0.00000000E+00
  0.00000000E+00  0.00000000E+00  0.00000000E+00
  0.00000000E+00  0.00000000E+00  0.00000000E+00
  0.00000000E+00  0.00000000E+00  0.00000000E+00
  0.00000000E+00  0.00000000E+00  0.00000000E+00
  0.00000000E+00  0.00000000E+00  0.00000000E+00
  0.00000000E+00  0.00000000E+00  0.00000000E+00
  0.00000000E+00  0.00000000E+00  0.00000000E+00
  0.00000000E+00  0.00000000E+00  0.00000000E+00
  0.00000000E+00  0.00000000E+00  0.00000000E+00
  0.00000000E+00  0.00000000E+00  0.00000000E+00
  0.00000000E+00  0.00000000E+00  0.00000000E+00
  0.00000000E+00  0.00000000E+00  0.00000000E+00
  0.00000000E+00  0.00000000E+00  0.00000000E+00
  0.00000000E+00  0.00000000E+00  0.00000000E+00
  0.00000000E+00  0.00000000E+00  0.00000000E+00
  0.00000000E+00  0.00000000E+00  0.00000000E+00
  0.00000000E+00  0.00000000E+00  0.00000000E+00
  0.00000000E+00  0.00000000E+00  0.00000000E+00
  0.00000000E+00  0.00000000E+00  0.00000000E+00
  0.00000000E+00  0.00000000E+00  0.00000000E+00
  0.00000000E+00  0.00000000E+00  0.00000000E+00
  0.00000000E+00  0.00000000E+00  0.00000000E+00
  0.00000000E+00  0.00000000E+00  0.00000000E+00
  0.00000000E+00  0.00000000E+00  0.00000000E+00
  0.00000000E+00  0.00000000E+00  0.00000000E+00
  0.00000000E+00  0.00000000E+00  0.00000000E+00
  0.00000000E+00  0.00000000E+00  0.00000000E+00
  0.00000000E+00  0.00000000E+00  0.00000000E+00
  0.00000000E+00  0.00000000E+00  0.00000000E+00
  0.00000000E+00  0.00000000E+00  0.00000000E+00
  0.00000000E+00  0.00000000E+00  0.00000000E+00
  0.00000000E+00  0.00000000E+00  0.00000000E+00
  0.00000000E+00  0.00000000E+00  0.00000000E+00
  0.00000000E+00  0.00000000E+00  0.00000000E+00
  0.00000000E+00  0.00000000E+00  0.00000000E+00
  0.00000000E+00  0.00000000E+00  0.00000000E+00
  0.00000000E+00  0.00000000E+00  0.00000000E+00
  0.00000000E+00  0.00000000E+00  0.00000000E+00
  0.00000000E+00  0.00000000E+00  0.00000000E+00
  0.00000000E+00  0.00000000E+00  0.00000000E+00
  0.00000000E+00  0.00000000E+00  0.00000000E+00
  0.00000000E+00  0.00000000E+00  0.00000000E+00
  0.00000000E+00  0.00000000E+00  0.00000000E+00
  0.00000000E+00  0.00000000E+00  0.00000000E+00
  0.00000000E+00  0.00000000E+00  0.00000000E+00
