generated by phonopy                    
    1.018037637731874     
    51.8079566647631893    0.0000000000000000    0.0000000000000000
     0.0000000000000000    5.0017182635126254   -0.0000000000000000
     0.0000000000000000   -2.5008591317563127    4.3316150787745284
   Co   Ru
    96     8
Direct
  0.0209761982226482  0.3333333333333286  0.1666666666666714
  0.0209761982226482  0.3333333333333286  0.6666666666666714
  0.0209761982226482  0.8333333333333286  0.1666666666666714
  0.0209761982226482  0.8333333333333286  0.6666666666666714
  0.0590054648523123  0.1666666666666714  0.3333333333333286
  0.0590054648523123  0.1666666666666714  0.8333333333333286
  0.0590054648523123  0.6666666666666714  0.3333333333333286
  0.0590054648523123  0.6666666666666714  0.8333333333333286
  0.0971842875992220  0.3333333333333286  0.1666666666666714
  0.0971842875992220  0.3333333333333286  0.6666666666666714
  0.0971842875992220  0.8333333333333286  0.1666666666666714
  0.0971842875992220  0.8333333333333286  0.6666666666666714
  0.1353153642309090  0.1666666666666714  0.3333333333333286
  0.1353153642309090  0.1666666666666714  0.8333333333333286
  0.1353153642309090  0.6666666666666714  0.3333333333333286
  0.1353153642309090  0.6666666666666714  0.8333333333333286
  0.1735699552719801  0.3333333333333286  0.1666666666666714
  0.1735699552719801  0.3333333333333286  0.6666666666666714
  0.1735699552719801  0.8333333333333286  0.1666666666666714
  0.1735699552719801  0.8333333333333286  0.6666666666666714
  0.2116692536987791  0.1666666666666714  0.3333333333333286
  0.2116692536987791  0.1666666666666714  0.8333333333333286
  0.2116692536987791  0.6666666666666714  0.3333333333333286
  0.2116692536987791  0.6666666666666714  0.8333333333333286
  0.2498692078396808  0.3333333333333286  0.1666666666666714
  0.2498692078396808  0.3333333333333286  0.6666666666666714
  0.2498692078396808  0.8333333333333286  0.1666666666666714
  0.2498692078396808  0.8333333333333286  0.6666666666666714
  0.2879685062664797  0.1666666666666714  0.3333333333333286
  0.2879685062664797  0.1666666666666714  0.8333333333333286
  0.2879685062664797  0.6666666666666714  0.3333333333333286
  0.2879685062664797  0.6666666666666714  0.8333333333333286
  0.3262230973075582  0.3333333333333286  0.1666666666666714
  0.3262230973075582  0.3333333333333286  0.6666666666666714
  0.3262230973075582  0.8333333333333286  0.1666666666666714
  0.3262230973075582  0.8333333333333286  0.6666666666666714
  0.3643541739392450  0.1666666666666714  0.3333333333333286
  0.3643541739392450  0.1666666666666714  0.8333333333333286
  0.3643541739392450  0.6666666666666714  0.3333333333333286
  0.3643541739392450  0.6666666666666714  0.8333333333333286
  0.4025329966861475  0.3333333333333286  0.1666666666666714
  0.4025329966861475  0.3333333333333286  0.6666666666666714
  0.4025329966861475  0.8333333333333286  0.1666666666666714
  0.4025329966861475  0.8333333333333286  0.6666666666666714
  0.4405622633158117  0.1666666666666714  0.3333333333333286
  0.4405622633158117  0.1666666666666714  0.8333333333333286
  0.4405622633158117  0.6666666666666714  0.3333333333333286
  0.4405622633158117  0.6666666666666714  0.8333333333333286
  0.5209761982226483  0.1666666666666714  0.3333333333333286
  0.5209761982226483  0.1666666666666714  0.8333333333333286
  0.5209761982226483  0.6666666666666714  0.3333333333333286
  0.5209761982226483  0.6666666666666714  0.8333333333333286
  0.5590054648523123  0.3333333333333286  0.1666666666666714
  0.5590054648523123  0.3333333333333286  0.6666666666666714
  0.5590054648523123  0.8333333333333286  0.1666666666666714
  0.5590054648523123  0.8333333333333286  0.6666666666666714
  0.5971842875992149  0.1666666666666714  0.3333333333333286
  0.5971842875992149  0.1666666666666714  0.8333333333333286
  0.5971842875992149  0.6666666666666714  0.3333333333333286
  0.5971842875992149  0.6666666666666714  0.8333333333333286
  0.6353153642309088  0.3333333333333286  0.1666666666666714
  0.6353153642309088  0.3333333333333286  0.6666666666666714
  0.6353153642309088  0.8333333333333286  0.1666666666666714
  0.6353153642309088  0.8333333333333286  0.6666666666666714
  0.6735699552719804  0.1666666666666714  0.3333333333333286
  0.6735699552719804  0.1666666666666714  0.8333333333333286
  0.6735699552719804  0.6666666666666714  0.3333333333333286
  0.6735699552719804  0.6666666666666714  0.8333333333333286
  0.7116692536987791  0.3333333333333286  0.1666666666666714
  0.7116692536987791  0.3333333333333286  0.6666666666666714
  0.7116692536987791  0.8333333333333286  0.1666666666666714
  0.7116692536987791  0.8333333333333286  0.6666666666666714
  0.7498692078396808  0.1666666666666714  0.3333333333333286
  0.7498692078396808  0.1666666666666714  0.8333333333333286
  0.7498692078396808  0.6666666666666714  0.3333333333333286
  0.7498692078396808  0.6666666666666714  0.8333333333333286
  0.7879685062664795  0.3333333333333286  0.1666666666666714
  0.7879685062664795  0.3333333333333286  0.6666666666666714
  0.7879685062664795  0.8333333333333286  0.1666666666666714
  0.7879685062664795  0.8333333333333286  0.6666666666666714
  0.8262230973075582  0.1666666666666714  0.3333333333333286
  0.8262230973075582  0.1666666666666714  0.8333333333333286
  0.8262230973075582  0.6666666666666714  0.3333333333333286
  0.8262230973075582  0.6666666666666714  0.8333333333333286
  0.8643541739392450  0.3333333333333286  0.1666666666666714
  0.8643541739392450  0.3333333333333286  0.6666666666666714
  0.8643541739392450  0.8333333333333286  0.1666666666666714
  0.8643541739392450  0.8333333333333286  0.6666666666666714
  0.9025329966861476  0.1666666666666714  0.3333333333333286
  0.9025329966861476  0.1666666666666714  0.8333333333333286
  0.9025329966861476  0.6666666666666714  0.3333333333333286
  0.9025329966861476  0.6666666666666714  0.8333333333333286
  0.9405622633158116  0.3333333333333286  0.1666666666666714
  0.9405622633158116  0.3333333333333286  0.6666666666666714
  0.9405622633158116  0.8333333333333286  0.1666666666666714
  0.9405622633158116  0.8333333333333286  0.6666666666666714
  0.4807692307692335  0.3333333333333286  0.1666666666666714
  0.4807692307692335  0.3333333333333286  0.6666666666666714
  0.4807692307692335  0.8333333333333286  0.1666666666666714
  0.4807692307692335  0.8333333333333286  0.6666666666666714
  0.9807692307692335  0.1666666666666714  0.3333333333333286
  0.9807692307692335  0.1666666666666714  0.8333333333333286
  0.9807692307692335  0.6666666666666714  0.3333333333333286
  0.9807692307692335  0.6666666666666714  0.8333333333333286
 
  0.00000000E+00  0.00000000E+00  0.00000000E+00
  0.00000000E+00  0.00000000E+00  0.00000000E+00
  0.00000000E+00  0.00000000E+00  0.00000000E+00
  0.00000000E+00  0.00000000E+00  0.00000000E+00
  0.00000000E+00  0.00000000E+00  0.00000000E+00
  0.00000000E+00  0.00000000E+00  0.00000000E+00
  0.00000000E+00  0.00000000E+00  0.00000000E+00
  0.00000000E+00  0.00000000E+00  0.00000000E+00
  0.00000000E+00  0.00000000E+00  0.00000000E+00
  0.00000000E+00  0.00000000E+00  0.00000000E+00
  0.00000000E+00  0.00000000E+00  0.00000000E+00
  0.00000000E+00  0.00000000E+00  0.00000000E+00
  0.00000000E+00  0.00000000E+00  0.00000000E+00
  0.00000000E+00  0.00000000E+00  0.00000000E+00
  0.00000000E+00  0.00000000E+00  0.00000000E+00
  0.00000000E+00  0.00000000E+00  0.00000000E+00
  0.00000000E+00  0.00000000E+00  0.00000000E+00
  0.00000000E+00  0.00000000E+00  0.00000000E+00
  0.00000000E+00  0.00000000E+00  0.00000000E+00
  0.00000000E+00  0.00000000E+00  0.00000000E+00
  0.00000000E+00  0.00000000E+00  0.00000000E+00
  0.00000000E+00  0.00000000E+00  0.00000000E+00
  0.00000000E+00  0.00000000E+00  0.00000000E+00
  0.00000000E+00  0.00000000E+00  0.00000000E+00
  0.00000000E+00  0.00000000E+00  0.00000000E+00
  0.00000000E+00  0.00000000E+00  0.00000000E+00
  0.00000000E+00  0.00000000E+00  0.00000000E+00
  0.00000000E+00  0.00000000E+00  0.00000000E+00
  0.00000000E+00  0.00000000E+00  0.00000000E+00
  0.00000000E+00  0.00000000E+00  0.00000000E+00
  0.00000000E+00  0.00000000E+00  0.00000000E+00
  0.00000000E+00  0.00000000E+00  0.00000000E+00
  0.00000000E+00  0.00000000E+00  0.00000000E+00
  0.00000000E+00  0.00000000E+00  0.00000000E+00
  0.00000000E+00  0.00000000E+00  0.00000000E+00
  0.00000000E+00  0.00000000E+00  0.00000000E+00
  0.00000000E+00  0.00000000E+00  0.00000000E+00
  0.00000000E+00  0.00000000E+00  0.00000000E+00
  0.00000000E+00  0.00000000E+00  0.00000000E+00
  0.00000000E+00  0.00000000E+00  0.00000000E+00
  0.00000000E+00  0.00000000E+00  0.00000000E+00
  0.00000000E+00  0.00000000E+00  0.00000000E+00
  0.00000000E+00  0.00000000E+00  0.00000000E+00
  0.00000000E+00  0.00000000E+00  0.00000000E+00
  0.00000000E+00  0.00000000E+00  0.00000000E+00
  0.00000000E+00  0.00000000E+00  0.00000000E+00
  0.00000000E+00  0.00000000E+00  0.00000000E+00
  0.00000000E+00  0.00000000E+00  0.00000000E+00
  0.00000000E+00  0.00000000E+00  0.00000000E+00
  0.00000000E+00  0.00000000E+00  0.00000000E+00
  0.00000000E+00  0.00000000E+00  0.00000000E+00
  0.00000000E+00  0.00000000E+00  0.00000000E+00
  0.00000000E+00  0.00000000E+00  0.00000000E+00
  0.00000000E+00  0.00000000E+00  0.00000000E+00
  0.00000000E+00  0.00000000E+00  0.00000000E+00
  0.00000000E+00  0.00000000E+00  0.00000000E+00
  0.00000000E+00  0.00000000E+00  0.00000000E+00
  0.00000000E+00  0.00000000E+00  0.00000000E+00
  0.00000000E+00  0.00000000E+00  0.00000000E+00
  0.00000000E+00  0.00000000E+00  0.00000000E+00
  0.00000000E+00  0.00000000E+00  0.00000000E+00
  0.00000000E+00  0.00000000E+00  0.00000000E+00
  0.00000000E+00  0.00000000E+00  0.00000000E+00
  0.00000000E+00  0.00000000E+00  0.00000000E+00
  0.00000000E+00  0.00000000E+00  0.00000000E+00
  0.00000000E+00  0.00000000E+00  0.00000000E+00
  0.00000000E+00  0.00000000E+00  0.00000000E+00
  0.00000000E+00  0.00000000E+00  0.00000000E+00
  0.00000000E+00  0.00000000E+00  0.00000000E+00
  0.00000000E+00  0.00000000E+00  0.00000000E+00
  0.00000000E+00  0.00000000E+00  0.00000000E+00
  0.00000000E+00  0.00000000E+00  0.00000000E+00
  0.00000000E+00  0.00000000E+00  0.00000000E+00
  0.00000000E+00  0.00000000E+00  0.00000000E+00
  0.00000000E+00  0.00000000E+00  0.00000000E+00
  0.00000000E+00  0.00000000E+00  0.00000000E+00
  0.00000000E+00  0.00000000E+00  0.00000000E+00
  0.00000000E+00  0.00000000E+00  0.00000000E+00
  0.00000000E+00  0.00000000E+00  0.00000000E+00
  0.00000000E+00  0.00000000E+00  0.00000000E+00
  0.00000000E+00  0.00000000E+00  0.00000000E+00
  0.00000000E+00  0.00000000E+00  0.00000000E+00
  0.00000000E+00  0.00000000E+00  0.00000000E+00
  0.00000000E+00  0.00000000E+00  0.00000000E+00
  0.00000000E+00  0.00000000E+00  0.00000000E+00
  0.00000000E+00  0.00000000E+00  0.00000000E+00
  0.00000000E+00  0.00000000E+00  0.00000000E+00
  0.00000000E+00  0.00000000E+00  0.00000000E+00
  0.00000000E+00  0.00000000E+00  0.00000000E+00
  0.00000000E+00  0.00000000E+00  0.00000000E+00
  0.00000000E+00  0.00000000E+00  0.00000000E+00
  0.00000000E+00  0.00000000E+00  0.00000000E+00
  0.00000000E+00  0.00000000E+00  0.00000000E+00
  0.00000000E+00  0.00000000E+00  0.00000000E+00
  0.00000000E+00  0.00000000E+00  0.00000000E+00
  0.00000000E+00  0.00000000E+00  0.00000000E+00
  0.00000000E+00  0.00000000E+00  0.00000000E+00
  0.00000000E+00  0.00000000E+00  0.00000000E+00
  0.00000000E+00  0.00000000E+00  0.00000000E+00
  0.00000000E+00  0.00000000E+00  0.00000000E+00
  0.00000000E+00  0.00000000E+00  0.00000000E+00
  0.00000000E+00  0.00000000E+00  0.00000000E+00
  0.00000000E+00  0.00000000E+00  0.00000000E+00
  0.00000000E+00  0.00000000E+00  0.00000000E+00
