generated by phonopy                    
  0.999899323197855     
    36.3485179078893594   -0.0000000000000000   -0.0000000000000000
     0.0000000000000000    5.2089662423751442   -0.0000000000000005
    -0.0000000000000000   -2.6044831211875716    4.5110970933525492
   Co   Ru
    48    24
Direct
  0.0332308122375299  0.3333333333333286  0.1666666666666714
  0.0332308122375299  0.3333333333333286  0.6666666666666714
  0.0332308122375299  0.8333333333333286  0.1666666666666714
  0.0332308122375299  0.8333333333333286  0.6666666666666714
  0.0864712593142000  0.1666666666666714  0.3333333333333286
  0.0864712593142000  0.1666666666666714  0.8333333333333286
  0.0864712593142000  0.6666666666666714  0.3333333333333286
  0.0864712593142000  0.6666666666666714  0.8333333333333286
  0.1399188350253689  0.3333333333333286  0.1666666666666714
  0.1399188350253689  0.3333333333333286  0.6666666666666714
  0.1399188350253689  0.8333333333333286  0.1666666666666714
  0.1399188350253689  0.8333333333333286  0.6666666666666714
  0.1934152167888647  0.1666666666666714  0.3333333333333286
  0.1934152167888647  0.1666666666666714  0.8333333333333286
  0.1934152167888647  0.6666666666666714  0.3333333333333286
  0.1934152167888647  0.6666666666666714  0.8333333333333286
  0.2468607113872084  0.3333333333333286  0.1666666666666714
  0.2468607113872084  0.3333333333333286  0.6666666666666714
  0.2468607113872084  0.8333333333333286  0.1666666666666714
  0.2468607113872084  0.8333333333333286  0.6666666666666714
  0.3001014410231629  0.1666666666666714  0.3333333333333286
  0.3001014410231629  0.1666666666666714  0.8333333333333286
  0.3001014410231629  0.6666666666666714  0.3333333333333286
  0.3001014410231629  0.6666666666666714  0.8333333333333286
  0.5332308122375298  0.1666666666666714  0.3333333333333286
  0.5332308122375298  0.1666666666666714  0.8333333333333286
  0.5332308122375298  0.6666666666666714  0.3333333333333286
  0.5332308122375298  0.6666666666666714  0.8333333333333286
  0.5864712593142002  0.3333333333333286  0.1666666666666714
  0.5864712593142002  0.3333333333333286  0.6666666666666714
  0.5864712593142002  0.8333333333333286  0.1666666666666714
  0.5864712593142002  0.8333333333333286  0.6666666666666714
  0.6399188350253692  0.1666666666666714  0.3333333333333286
  0.6399188350253692  0.1666666666666714  0.8333333333333286
  0.6399188350253692  0.6666666666666714  0.3333333333333286
  0.6399188350253692  0.6666666666666714  0.8333333333333286
  0.6934152167888644  0.3333333333333286  0.1666666666666714
  0.6934152167888644  0.3333333333333286  0.6666666666666714
  0.6934152167888644  0.8333333333333286  0.1666666666666714
  0.6934152167888644  0.8333333333333286  0.6666666666666714
  0.7468607113872082  0.1666666666666714  0.3333333333333286
  0.7468607113872082  0.1666666666666714  0.8333333333333286
  0.7468607113872082  0.6666666666666714  0.3333333333333286
  0.7468607113872082  0.6666666666666714  0.8333333333333286
  0.8001014410231631  0.3333333333333286  0.1666666666666714
  0.8001014410231631  0.3333333333333286  0.6666666666666714
  0.8001014410231631  0.8333333333333286  0.1666666666666714
  0.8001014410231631  0.8333333333333286  0.6666666666666714
  0.3573069268575778  0.3333333333333286  0.1666666666666714
  0.3573069268575778  0.3333333333333286  0.6666666666666714
  0.3573069268575778  0.8333333333333286  0.1666666666666714
  0.3573069268575778  0.8333333333333286  0.6666666666666714
  0.4166671998420739  0.1666666666666714  0.3333333333333286
  0.4166671998420739  0.1666666666666714  0.8333333333333286
  0.4166671998420739  0.6666666666666714  0.3333333333333286
  0.4166671998420739  0.6666666666666714  0.8333333333333286
  0.4760275975240064  0.3333333333333286  0.1666666666666714
  0.4760275975240064  0.3333333333333286  0.6666666666666714
  0.4760275975240064  0.8333333333333286  0.1666666666666714
  0.4760275975240064  0.8333333333333286  0.6666666666666714
  0.8573069268575851  0.1666666666666714  0.3333333333333286
  0.8573069268575851  0.1666666666666714  0.8333333333333286
  0.8573069268575851  0.6666666666666714  0.3333333333333286
  0.8573069268575851  0.6666666666666714  0.8333333333333286
  0.9166671998420668  0.3333333333333286  0.1666666666666714
  0.9166671998420668  0.3333333333333286  0.6666666666666714
  0.9166671998420668  0.8333333333333286  0.1666666666666714
  0.9166671998420668  0.8333333333333286  0.6666666666666714
  0.9760275975240204  0.1666666666666714  0.3333333333333286
  0.9760275975240204  0.1666666666666714  0.8333333333333286
  0.9760275975240204  0.6666666666666714  0.3333333333333286
  0.9760275975240204  0.6666666666666714  0.8333333333333286
 
  0.00000000E+00  0.00000000E+00  0.00000000E+00
  0.00000000E+00  0.00000000E+00  0.00000000E+00
  0.00000000E+00  0.00000000E+00  0.00000000E+00
  0.00000000E+00  0.00000000E+00  0.00000000E+00
  0.00000000E+00  0.00000000E+00  0.00000000E+00
  0.00000000E+00  0.00000000E+00  0.00000000E+00
  0.00000000E+00  0.00000000E+00  0.00000000E+00
  0.00000000E+00  0.00000000E+00  0.00000000E+00
  0.00000000E+00  0.00000000E+00  0.00000000E+00
  0.00000000E+00  0.00000000E+00  0.00000000E+00
  0.00000000E+00  0.00000000E+00  0.00000000E+00
  0.00000000E+00  0.00000000E+00  0.00000000E+00
  0.00000000E+00  0.00000000E+00  0.00000000E+00
  0.00000000E+00  0.00000000E+00  0.00000000E+00
  0.00000000E+00  0.00000000E+00  0.00000000E+00
  0.00000000E+00  0.00000000E+00  0.00000000E+00
  0.00000000E+00  0.00000000E+00  0.00000000E+00
  0.00000000E+00  0.00000000E+00  0.00000000E+00
  0.00000000E+00  0.00000000E+00  0.00000000E+00
  0.00000000E+00  0.00000000E+00  0.00000000E+00
  0.00000000E+00  0.00000000E+00  0.00000000E+00
  0.00000000E+00  0.00000000E+00  0.00000000E+00
  0.00000000E+00  0.00000000E+00  0.00000000E+00
  0.00000000E+00  0.00000000E+00  0.00000000E+00
  0.00000000E+00  0.00000000E+00  0.00000000E+00
  0.00000000E+00  0.00000000E+00  0.00000000E+00
  0.00000000E+00  0.00000000E+00  0.00000000E+00
  0.00000000E+00  0.00000000E+00  0.00000000E+00
  0.00000000E+00  0.00000000E+00  0.00000000E+00
  0.00000000E+00  0.00000000E+00  0.00000000E+00
  0.00000000E+00  0.00000000E+00  0.00000000E+00
  0.00000000E+00  0.00000000E+00  0.00000000E+00
  0.00000000E+00  0.00000000E+00  0.00000000E+00
  0.00000000E+00  0.00000000E+00  0.00000000E+00
  0.00000000E+00  0.00000000E+00  0.00000000E+00
  0.00000000E+00  0.00000000E+00  0.00000000E+00
  0.00000000E+00  0.00000000E+00  0.00000000E+00
  0.00000000E+00  0.00000000E+00  0.00000000E+00
  0.00000000E+00  0.00000000E+00  0.00000000E+00
  0.00000000E+00  0.00000000E+00  0.00000000E+00
  0.00000000E+00  0.00000000E+00  0.00000000E+00
  0.00000000E+00  0.00000000E+00  0.00000000E+00
  0.00000000E+00  0.00000000E+00  0.00000000E+00
  0.00000000E+00  0.00000000E+00  0.00000000E+00
  0.00000000E+00  0.00000000E+00  0.00000000E+00
  0.00000000E+00  0.00000000E+00  0.00000000E+00
  0.00000000E+00  0.00000000E+00  0.00000000E+00
  0.00000000E+00  0.00000000E+00  0.00000000E+00
  0.00000000E+00  0.00000000E+00  0.00000000E+00
  0.00000000E+00  0.00000000E+00  0.00000000E+00
  0.00000000E+00  0.00000000E+00  0.00000000E+00
  0.00000000E+00  0.00000000E+00  0.00000000E+00
  0.00000000E+00  0.00000000E+00  0.00000000E+00
  0.00000000E+00  0.00000000E+00  0.00000000E+00
  0.00000000E+00  0.00000000E+00  0.00000000E+00
  0.00000000E+00  0.00000000E+00  0.00000000E+00
  0.00000000E+00  0.00000000E+00  0.00000000E+00
  0.00000000E+00  0.00000000E+00  0.00000000E+00
  0.00000000E+00  0.00000000E+00  0.00000000E+00
  0.00000000E+00  0.00000000E+00  0.00000000E+00
  0.00000000E+00  0.00000000E+00  0.00000000E+00
  0.00000000E+00  0.00000000E+00  0.00000000E+00
  0.00000000E+00  0.00000000E+00  0.00000000E+00
  0.00000000E+00  0.00000000E+00  0.00000000E+00
  0.00000000E+00  0.00000000E+00  0.00000000E+00
  0.00000000E+00  0.00000000E+00  0.00000000E+00
  0.00000000E+00  0.00000000E+00  0.00000000E+00
  0.00000000E+00  0.00000000E+00  0.00000000E+00
  0.00000000E+00  0.00000000E+00  0.00000000E+00
  0.00000000E+00  0.00000000E+00  0.00000000E+00
  0.00000000E+00  0.00000000E+00  0.00000000E+00
  0.00000000E+00  0.00000000E+00  0.00000000E+00
