generated by phonopy                    
   1.01301026190959     
    40.3501401323846238   -0.0000000000000000    0.0000000000000000
    -0.0000000000000000    5.1910743614606574    0.0000000000000004
     0.0000000000000000   -2.5955371807303300    4.4956022699590088
   Co   Ru
    56    24
Direct
  0.0298530144135552  0.3333333333333286  0.1666666666666714
  0.0298530144135552  0.3333333333333286  0.6666666666666714
  0.0298530144135552  0.8333333333333286  0.1666666666666714
  0.0298530144135552  0.8333333333333286  0.6666666666666714
  0.0780815825647095  0.1666666666666714  0.3333333333333286
  0.0780815825647095  0.1666666666666714  0.8333333333333286
  0.0780815825647095  0.6666666666666714  0.3333333333333286
  0.0780815825647095  0.6666666666666714  0.8333333333333286
  0.1265635979631615  0.3333333333333286  0.1666666666666714
  0.1265635979631615  0.3333333333333286  0.6666666666666714
  0.1265635979631615  0.8333333333333286  0.1666666666666714
  0.1265635979631615  0.8333333333333286  0.6666666666666714
  0.1750021256654279  0.1666666666666714  0.3333333333333286
  0.1750021256654279  0.1666666666666714  0.8333333333333286
  0.1750021256654279  0.6666666666666714  0.3333333333333286
  0.1750021256654279  0.6666666666666714  0.8333333333333286
  0.2234399724768470  0.3333333333333286  0.1666666666666714
  0.2234399724768470  0.3333333333333286  0.6666666666666714
  0.2234399724768470  0.8333333333333286  0.1666666666666714
  0.2234399724768470  0.8333333333333286  0.6666666666666714
  0.2719197776800687  0.1666666666666714  0.3333333333333286
  0.2719197776800687  0.1666666666666714  0.8333333333333286
  0.2719197776800687  0.6666666666666714  0.3333333333333286
  0.2719197776800687  0.6666666666666714  0.8333333333333286
  0.3201457460327781  0.3333333333333286  0.1666666666666714
  0.3201457460327781  0.3333333333333286  0.6666666666666714
  0.3201457460327781  0.8333333333333286  0.1666666666666714
  0.3201457460327781  0.8333333333333286  0.6666666666666714
  0.5298530144135549  0.3333333333333286  0.1666666666666714
  0.5298530144135549  0.3333333333333286  0.6666666666666714
  0.5298530144135549  0.8333333333333286  0.1666666666666714
  0.5298530144135549  0.8333333333333286  0.6666666666666714
  0.5780815825647018  0.1666666666666714  0.3333333333333286
  0.5780815825647018  0.1666666666666714  0.8333333333333286
  0.5780815825647018  0.6666666666666714  0.3333333333333286
  0.5780815825647018  0.6666666666666714  0.8333333333333286
  0.6265635979631613  0.3333333333333286  0.1666666666666714
  0.6265635979631613  0.3333333333333286  0.6666666666666714
  0.6265635979631613  0.8333333333333286  0.1666666666666714
  0.6265635979631613  0.8333333333333286  0.6666666666666714
  0.6750021256654206  0.1666666666666714  0.3333333333333286
  0.6750021256654206  0.1666666666666714  0.8333333333333286
  0.6750021256654206  0.6666666666666714  0.3333333333333286
  0.6750021256654206  0.6666666666666714  0.8333333333333286
  0.7234399724768465  0.3333333333333286  0.1666666666666714
  0.7234399724768465  0.3333333333333286  0.6666666666666714
  0.7234399724768465  0.8333333333333286  0.1666666666666714
  0.7234399724768465  0.8333333333333286  0.6666666666666714
  0.7719197776800757  0.1666666666666714  0.3333333333333286
  0.7719197776800757  0.1666666666666714  0.8333333333333286
  0.7719197776800757  0.6666666666666714  0.3333333333333286
  0.7719197776800757  0.6666666666666714  0.8333333333333286
  0.8201457460327856  0.3333333333333286  0.1666666666666714
  0.8201457460327856  0.3333333333333286  0.6666666666666714
  0.8201457460327856  0.8333333333333286  0.1666666666666714
  0.8201457460327856  0.8333333333333286  0.6666666666666714
  0.3718693502738495  0.1666666666666714  0.3333333333333286
  0.3718693502738495  0.1666666666666714  0.8333333333333286
  0.3718693502738495  0.6666666666666714  0.3333333333333286
  0.3718693502738495  0.6666666666666714  0.8333333333333286
  0.4249979068590879  0.3333333333333286  0.1666666666666714
  0.4249979068590879  0.3333333333333286  0.6666666666666714
  0.4249979068590879  0.8333333333333286  0.1666666666666714
  0.4249979068590879  0.8333333333333286  0.6666666666666714
  0.4781269260705356  0.1666666666666714  0.3333333333333286
  0.4781269260705356  0.1666666666666714  0.8333333333333286
  0.4781269260705356  0.6666666666666714  0.3333333333333286
  0.4781269260705356  0.6666666666666714  0.8333333333333286
  0.8718693502738499  0.1666666666666714  0.3333333333333286
  0.8718693502738499  0.1666666666666714  0.8333333333333286
  0.8718693502738499  0.6666666666666714  0.3333333333333286
  0.8718693502738499  0.6666666666666714  0.8333333333333286
  0.9249979068590879  0.3333333333333286  0.1666666666666714
  0.9249979068590879  0.3333333333333286  0.6666666666666714
  0.9249979068590879  0.8333333333333286  0.1666666666666714
  0.9249979068590879  0.8333333333333286  0.6666666666666714
  0.9781269260705354  0.1666666666666714  0.3333333333333286
  0.9781269260705354  0.1666666666666714  0.8333333333333286
  0.9781269260705354  0.6666666666666714  0.3333333333333286
  0.9781269260705354  0.6666666666666714  0.8333333333333286
 
  0.00000000E+00  0.00000000E+00  0.00000000E+00
  0.00000000E+00  0.00000000E+00  0.00000000E+00
  0.00000000E+00  0.00000000E+00  0.00000000E+00
  0.00000000E+00  0.00000000E+00  0.00000000E+00
  0.00000000E+00  0.00000000E+00  0.00000000E+00
  0.00000000E+00  0.00000000E+00  0.00000000E+00
  0.00000000E+00  0.00000000E+00  0.00000000E+00
  0.00000000E+00  0.00000000E+00  0.00000000E+00
  0.00000000E+00  0.00000000E+00  0.00000000E+00
  0.00000000E+00  0.00000000E+00  0.00000000E+00
  0.00000000E+00  0.00000000E+00  0.00000000E+00
  0.00000000E+00  0.00000000E+00  0.00000000E+00
  0.00000000E+00  0.00000000E+00  0.00000000E+00
  0.00000000E+00  0.00000000E+00  0.00000000E+00
  0.00000000E+00  0.00000000E+00  0.00000000E+00
  0.00000000E+00  0.00000000E+00  0.00000000E+00
  0.00000000E+00  0.00000000E+00  0.00000000E+00
  0.00000000E+00  0.00000000E+00  0.00000000E+00
  0.00000000E+00  0.00000000E+00  0.00000000E+00
  0.00000000E+00  0.00000000E+00  0.00000000E+00
  0.00000000E+00  0.00000000E+00  0.00000000E+00
  0.00000000E+00  0.00000000E+00  0.00000000E+00
  0.00000000E+00  0.00000000E+00  0.00000000E+00
  0.00000000E+00  0.00000000E+00  0.00000000E+00
  0.00000000E+00  0.00000000E+00  0.00000000E+00
  0.00000000E+00  0.00000000E+00  0.00000000E+00
  0.00000000E+00  0.00000000E+00  0.00000000E+00
  0.00000000E+00  0.00000000E+00  0.00000000E+00
  0.00000000E+00  0.00000000E+00  0.00000000E+00
  0.00000000E+00  0.00000000E+00  0.00000000E+00
  0.00000000E+00  0.00000000E+00  0.00000000E+00
  0.00000000E+00  0.00000000E+00  0.00000000E+00
  0.00000000E+00  0.00000000E+00  0.00000000E+00
  0.00000000E+00  0.00000000E+00  0.00000000E+00
  0.00000000E+00  0.00000000E+00  0.00000000E+00
  0.00000000E+00  0.00000000E+00  0.00000000E+00
  0.00000000E+00  0.00000000E+00  0.00000000E+00
  0.00000000E+00  0.00000000E+00  0.00000000E+00
  0.00000000E+00  0.00000000E+00  0.00000000E+00
  0.00000000E+00  0.00000000E+00  0.00000000E+00
  0.00000000E+00  0.00000000E+00  0.00000000E+00
  0.00000000E+00  0.00000000E+00  0.00000000E+00
  0.00000000E+00  0.00000000E+00  0.00000000E+00
  0.00000000E+00  0.00000000E+00  0.00000000E+00
  0.00000000E+00  0.00000000E+00  0.00000000E+00
  0.00000000E+00  0.00000000E+00  0.00000000E+00
  0.00000000E+00  0.00000000E+00  0.00000000E+00
  0.00000000E+00  0.00000000E+00  0.00000000E+00
  0.00000000E+00  0.00000000E+00  0.00000000E+00
  0.00000000E+00  0.00000000E+00  0.00000000E+00
  0.00000000E+00  0.00000000E+00  0.00000000E+00
  0.00000000E+00  0.00000000E+00  0.00000000E+00
  0.00000000E+00  0.00000000E+00  0.00000000E+00
  0.00000000E+00  0.00000000E+00  0.00000000E+00
  0.00000000E+00  0.00000000E+00  0.00000000E+00
  0.00000000E+00  0.00000000E+00  0.00000000E+00
  0.00000000E+00  0.00000000E+00  0.00000000E+00
  0.00000000E+00  0.00000000E+00  0.00000000E+00
  0.00000000E+00  0.00000000E+00  0.00000000E+00
  0.00000000E+00  0.00000000E+00  0.00000000E+00
  0.00000000E+00  0.00000000E+00  0.00000000E+00
  0.00000000E+00  0.00000000E+00  0.00000000E+00
  0.00000000E+00  0.00000000E+00  0.00000000E+00
  0.00000000E+00  0.00000000E+00  0.00000000E+00
  0.00000000E+00  0.00000000E+00  0.00000000E+00
  0.00000000E+00  0.00000000E+00  0.00000000E+00
  0.00000000E+00  0.00000000E+00  0.00000000E+00
  0.00000000E+00  0.00000000E+00  0.00000000E+00
  0.00000000E+00  0.00000000E+00  0.00000000E+00
  0.00000000E+00  0.00000000E+00  0.00000000E+00
  0.00000000E+00  0.00000000E+00  0.00000000E+00
  0.00000000E+00  0.00000000E+00  0.00000000E+00
  0.00000000E+00  0.00000000E+00  0.00000000E+00
  0.00000000E+00  0.00000000E+00  0.00000000E+00
  0.00000000E+00  0.00000000E+00  0.00000000E+00
  0.00000000E+00  0.00000000E+00  0.00000000E+00
  0.00000000E+00  0.00000000E+00  0.00000000E+00
  0.00000000E+00  0.00000000E+00  0.00000000E+00
  0.00000000E+00  0.00000000E+00  0.00000000E+00
  0.00000000E+00  0.00000000E+00  0.00000000E+00
