generated by phonopy                    
    1.009999999999999     
    44.3176339947424225    0.0000000000000000   -0.0000000000000000
     0.0000000000000000    5.1719054957971622   -0.0000000000000002
    -0.0000000000000000   -2.5859527478985815    4.4790015453326912
   Co   Ru
    64    24
Direct
  0.0276500360544527  0.3333333333333286  0.1666666666666714
  0.0276500360544527  0.3333333333333286  0.6666666666666714
  0.0276500360544527  0.8333333333333286  0.1666666666666714
  0.0276500360544527  0.8333333333333286  0.6666666666666714
  0.0714884364975020  0.1666666666666714  0.3333333333333286
  0.0714884364975020  0.1666666666666714  0.8333333333333286
  0.0714884364975020  0.6666666666666714  0.3333333333333286
  0.0714884364975020  0.6666666666666714  0.8333333333333286
  0.1156314341748380  0.3333333333333286  0.1666666666666714
  0.1156314341748380  0.3333333333333286  0.6666666666666714
  0.1156314341748380  0.8333333333333286  0.1666666666666714
  0.1156314341748380  0.8333333333333286  0.6666666666666714
  0.1597852840305955  0.1666666666666714  0.3333333333333286
  0.1597852840305955  0.1666666666666714  0.8333333333333286
  0.1597852840305955  0.6666666666666714  0.3333333333333286
  0.1597852840305955  0.6666666666666714  0.8333333333333286
  0.2038739753561393  0.3333333333333286  0.1666666666666714
  0.2038739753561393  0.3333333333333286  0.6666666666666714
  0.2038739753561393  0.8333333333333286  0.1666666666666714
  0.2038739753561393  0.8333333333333286  0.6666666666666714
  0.2480185095330538  0.1666666666666714  0.3333333333333286
  0.2480185095330538  0.1666666666666714  0.8333333333333286
  0.2480185095330538  0.6666666666666714  0.3333333333333286
  0.2480185095330538  0.6666666666666714  0.8333333333333286
  0.2921481505754542  0.3333333333333286  0.1666666666666714
  0.2921481505754542  0.3333333333333286  0.6666666666666714
  0.2921481505754542  0.8333333333333286  0.1666666666666714
  0.2921481505754542  0.8333333333333286  0.6666666666666714
  0.3359764166030804  0.1666666666666714  0.3333333333333286
  0.3359764166030804  0.1666666666666714  0.8333333333333286
  0.3359764166030804  0.6666666666666714  0.3333333333333286
  0.3359764166030804  0.6666666666666714  0.8333333333333286
  0.5276500360544524  0.1666666666666714  0.3333333333333286
  0.5276500360544524  0.1666666666666714  0.8333333333333286
  0.5276500360544524  0.6666666666666714  0.3333333333333286
  0.5276500360544524  0.6666666666666714  0.8333333333333286
  0.5714884364975021  0.3333333333333286  0.1666666666666714
  0.5714884364975021  0.3333333333333286  0.6666666666666714
  0.5714884364975021  0.8333333333333286  0.1666666666666714
  0.5714884364975021  0.8333333333333286  0.6666666666666714
  0.6156314341748383  0.1666666666666714  0.3333333333333286
  0.6156314341748383  0.1666666666666714  0.8333333333333286
  0.6156314341748383  0.6666666666666714  0.3333333333333286
  0.6156314341748383  0.6666666666666714  0.8333333333333286
  0.6597852840305953  0.3333333333333286  0.1666666666666714
  0.6597852840305953  0.3333333333333286  0.6666666666666714
  0.6597852840305953  0.8333333333333286  0.1666666666666714
  0.6597852840305953  0.8333333333333286  0.6666666666666714
  0.7038739753561396  0.1666666666666714  0.3333333333333286
  0.7038739753561396  0.1666666666666714  0.8333333333333286
  0.7038739753561396  0.6666666666666714  0.3333333333333286
  0.7038739753561396  0.6666666666666714  0.8333333333333286
  0.7480185095330538  0.3333333333333286  0.1666666666666714
  0.7480185095330538  0.3333333333333286  0.6666666666666714
  0.7480185095330538  0.8333333333333286  0.1666666666666714
  0.7480185095330538  0.8333333333333286  0.6666666666666714
  0.7921481505754542  0.1666666666666714  0.3333333333333286
  0.7921481505754542  0.1666666666666714  0.8333333333333286
  0.7921481505754542  0.6666666666666714  0.3333333333333286
  0.7921481505754542  0.6666666666666714  0.8333333333333286
  0.8359764166030876  0.3333333333333286  0.1666666666666714
  0.8359764166030876  0.3333333333333286  0.6666666666666714
  0.8359764166030876  0.8333333333333286  0.1666666666666714
  0.8359764166030876  0.8333333333333286  0.6666666666666714
  0.3832155223176490  0.3333333333333286  0.1666666666666714
  0.3832155223176490  0.3333333333333286  0.6666666666666714
  0.3832155223176490  0.8333333333333286  0.1666666666666714
  0.3832155223176490  0.8333333333333286  0.6666666666666714
  0.4318087968302194  0.1666666666666714  0.3333333333333286
  0.4318087968302194  0.1666666666666714  0.8333333333333286
  0.4318087968302194  0.6666666666666714  0.3333333333333286
  0.4318087968302194  0.6666666666666714  0.8333333333333286
  0.4804034380270302  0.3333333333333286  0.1666666666666714
  0.4804034380270302  0.3333333333333286  0.6666666666666714
  0.4804034380270302  0.8333333333333286  0.1666666666666714
  0.4804034380270302  0.8333333333333286  0.6666666666666714
  0.8832155223176489  0.1666666666666714  0.3333333333333286
  0.8832155223176489  0.1666666666666714  0.8333333333333286
  0.8832155223176489  0.6666666666666714  0.3333333333333286
  0.8832155223176489  0.6666666666666714  0.8333333333333286
  0.9318087968302196  0.3333333333333286  0.1666666666666714
  0.9318087968302196  0.3333333333333286  0.6666666666666714
  0.9318087968302196  0.8333333333333286  0.1666666666666714
  0.9318087968302196  0.8333333333333286  0.6666666666666714
  0.9804034380270230  0.1666666666666714  0.3333333333333286
  0.9804034380270230  0.1666666666666714  0.8333333333333286
  0.9804034380270230  0.6666666666666714  0.3333333333333286
  0.9804034380270230  0.6666666666666714  0.8333333333333286
 
  0.00000000E+00  0.00000000E+00  0.00000000E+00
  0.00000000E+00  0.00000000E+00  0.00000000E+00
  0.00000000E+00  0.00000000E+00  0.00000000E+00
  0.00000000E+00  0.00000000E+00  0.00000000E+00
  0.00000000E+00  0.00000000E+00  0.00000000E+00
  0.00000000E+00  0.00000000E+00  0.00000000E+00
  0.00000000E+00  0.00000000E+00  0.00000000E+00
  0.00000000E+00  0.00000000E+00  0.00000000E+00
  0.00000000E+00  0.00000000E+00  0.00000000E+00
  0.00000000E+00  0.00000000E+00  0.00000000E+00
  0.00000000E+00  0.00000000E+00  0.00000000E+00
  0.00000000E+00  0.00000000E+00  0.00000000E+00
  0.00000000E+00  0.00000000E+00  0.00000000E+00
  0.00000000E+00  0.00000000E+00  0.00000000E+00
  0.00000000E+00  0.00000000E+00  0.00000000E+00
  0.00000000E+00  0.00000000E+00  0.00000000E+00
  0.00000000E+00  0.00000000E+00  0.00000000E+00
  0.00000000E+00  0.00000000E+00  0.00000000E+00
  0.00000000E+00  0.00000000E+00  0.00000000E+00
  0.00000000E+00  0.00000000E+00  0.00000000E+00
  0.00000000E+00  0.00000000E+00  0.00000000E+00
  0.00000000E+00  0.00000000E+00  0.00000000E+00
  0.00000000E+00  0.00000000E+00  0.00000000E+00
  0.00000000E+00  0.00000000E+00  0.00000000E+00
  0.00000000E+00  0.00000000E+00  0.00000000E+00
  0.00000000E+00  0.00000000E+00  0.00000000E+00
  0.00000000E+00  0.00000000E+00  0.00000000E+00
  0.00000000E+00  0.00000000E+00  0.00000000E+00
  0.00000000E+00  0.00000000E+00  0.00000000E+00
  0.00000000E+00  0.00000000E+00  0.00000000E+00
  0.00000000E+00  0.00000000E+00  0.00000000E+00
  0.00000000E+00  0.00000000E+00  0.00000000E+00
  0.00000000E+00  0.00000000E+00  0.00000000E+00
  0.00000000E+00  0.00000000E+00  0.00000000E+00
  0.00000000E+00  0.00000000E+00  0.00000000E+00
  0.00000000E+00  0.00000000E+00  0.00000000E+00
  0.00000000E+00  0.00000000E+00  0.00000000E+00
  0.00000000E+00  0.00000000E+00  0.00000000E+00
  0.00000000E+00  0.00000000E+00  0.00000000E+00
  0.00000000E+00  0.00000000E+00  0.00000000E+00
  0.00000000E+00  0.00000000E+00  0.00000000E+00
  0.00000000E+00  0.00000000E+00  0.00000000E+00
  0.00000000E+00  0.00000000E+00  0.00000000E+00
  0.00000000E+00  0.00000000E+00  0.00000000E+00
  0.00000000E+00  0.00000000E+00  0.00000000E+00
  0.00000000E+00  0.00000000E+00  0.00000000E+00
  0.00000000E+00  0.00000000E+00  0.00000000E+00
  0.00000000E+00  0.00000000E+00  0.00000000E+00
  0.00000000E+00  0.00000000E+00  0.00000000E+00
  0.00000000E+00  0.00000000E+00  0.00000000E+00
  0.00000000E+00  0.00000000E+00  0.00000000E+00
  0.00000000E+00  0.00000000E+00  0.00000000E+00
  0.00000000E+00  0.00000000E+00  0.00000000E+00
  0.00000000E+00  0.00000000E+00  0.00000000E+00
  0.00000000E+00  0.00000000E+00  0.00000000E+00
  0.00000000E+00  0.00000000E+00  0.00000000E+00
  0.00000000E+00  0.00000000E+00  0.00000000E+00
  0.00000000E+00  0.00000000E+00  0.00000000E+00
  0.00000000E+00  0.00000000E+00  0.00000000E+00
  0.00000000E+00  0.00000000E+00  0.00000000E+00
  0.00000000E+00  0.00000000E+00  0.00000000E+00
  0.00000000E+00  0.00000000E+00  0.00000000E+00
  0.00000000E+00  0.00000000E+00  0.00000000E+00
  0.00000000E+00  0.00000000E+00  0.00000000E+00
  0.00000000E+00  0.00000000E+00  0.00000000E+00
  0.00000000E+00  0.00000000E+00  0.00000000E+00
  0.00000000E+00  0.00000000E+00  0.00000000E+00
  0.00000000E+00  0.00000000E+00  0.00000000E+00
  0.00000000E+00  0.00000000E+00  0.00000000E+00
  0.00000000E+00  0.00000000E+00  0.00000000E+00
  0.00000000E+00  0.00000000E+00  0.00000000E+00
  0.00000000E+00  0.00000000E+00  0.00000000E+00
  0.00000000E+00  0.00000000E+00  0.00000000E+00
  0.00000000E+00  0.00000000E+00  0.00000000E+00
  0.00000000E+00  0.00000000E+00  0.00000000E+00
  0.00000000E+00  0.00000000E+00  0.00000000E+00
  0.00000000E+00  0.00000000E+00  0.00000000E+00
  0.00000000E+00  0.00000000E+00  0.00000000E+00
  0.00000000E+00  0.00000000E+00  0.00000000E+00
  0.00000000E+00  0.00000000E+00  0.00000000E+00
  0.00000000E+00  0.00000000E+00  0.00000000E+00
  0.00000000E+00  0.00000000E+00  0.00000000E+00
  0.00000000E+00  0.00000000E+00  0.00000000E+00
  0.00000000E+00  0.00000000E+00  0.00000000E+00
  0.00000000E+00  0.00000000E+00  0.00000000E+00
  0.00000000E+00  0.00000000E+00  0.00000000E+00
  0.00000000E+00  0.00000000E+00  0.00000000E+00
  0.00000000E+00  0.00000000E+00  0.00000000E+00
