generated by phonopy                    
    1.003288838351106     
    44.2986096790714541   -0.0000000000000000    0.0000000000000000
    -0.0000000000000000    5.1730159302102381   -0.0000000000000002
    -0.0000000000000000   -2.5865079651051195    4.4799632097436630
   Co   Ru
    64    24
Direct
  0.0278316717061131  0.3333333333333286  0.1666666666666714
  0.0278316717061131  0.3333333333333286  0.6666666666666714
  0.0278316717061131  0.8333333333333286  0.1666666666666714
  0.0278316717061131  0.8333333333333286  0.6666666666666714
  0.0716202469720457  0.1666666666666714  0.3333333333333286
  0.0716202469720457  0.1666666666666714  0.8333333333333286
  0.0716202469720457  0.6666666666666714  0.3333333333333286
  0.0716202469720457  0.6666666666666714  0.8333333333333286
  0.1156686892081621  0.3333333333333286  0.1666666666666714
  0.1156686892081621  0.3333333333333286  0.6666666666666714
  0.1156686892081621  0.8333333333333286  0.1666666666666714
  0.1156686892081621  0.8333333333333286  0.6666666666666714
  0.1598059462429267  0.1666666666666714  0.3333333333333286
  0.1598059462429267  0.1666666666666714  0.8333333333333286
  0.1598059462429267  0.6666666666666714  0.3333333333333286
  0.1598059462429267  0.6666666666666714  0.8333333333333286
  0.2038474399937588  0.3333333333333286  0.1666666666666714
  0.2038474399937588  0.3333333333333286  0.6666666666666714
  0.2038474399937588  0.8333333333333286  0.1666666666666714
  0.2038474399937588  0.8333333333333286  0.6666666666666714
  0.2479799195764420  0.1666666666666714  0.3333333333333286
  0.2479799195764420  0.1666666666666714  0.8333333333333286
  0.2479799195764420  0.6666666666666714  0.3333333333333286
  0.2479799195764420  0.6666666666666714  0.8333333333333286
  0.2920206323499659  0.3333333333333286  0.1666666666666714
  0.2920206323499659  0.3333333333333286  0.6666666666666714
  0.2920206323499659  0.8333333333333286  0.1666666666666714
  0.2920206323499659  0.8333333333333286  0.6666666666666714
  0.3357984467238499  0.1666666666666714  0.3333333333333286
  0.3357984467238499  0.1666666666666714  0.8333333333333286
  0.3357984467238499  0.6666666666666714  0.3333333333333286
  0.3357984467238499  0.6666666666666714  0.8333333333333286
  0.5278316717061131  0.1666666666666714  0.3333333333333286
  0.5278316717061131  0.1666666666666714  0.8333333333333286
  0.5278316717061131  0.6666666666666714  0.3333333333333286
  0.5278316717061131  0.6666666666666714  0.8333333333333286
  0.5716202469720455  0.3333333333333286  0.1666666666666714
  0.5716202469720455  0.3333333333333286  0.6666666666666714
  0.5716202469720455  0.8333333333333286  0.1666666666666714
  0.5716202469720455  0.8333333333333286  0.6666666666666714
  0.6156686892081618  0.1666666666666714  0.3333333333333286
  0.6156686892081618  0.1666666666666714  0.8333333333333286
  0.6156686892081618  0.6666666666666714  0.3333333333333286
  0.6156686892081618  0.6666666666666714  0.8333333333333286
  0.6598059462429268  0.3333333333333286  0.1666666666666714
  0.6598059462429268  0.3333333333333286  0.6666666666666714
  0.6598059462429268  0.8333333333333286  0.1666666666666714
  0.6598059462429268  0.8333333333333286  0.6666666666666714
  0.7038474399937587  0.1666666666666714  0.3333333333333286
  0.7038474399937587  0.1666666666666714  0.8333333333333286
  0.7038474399937587  0.6666666666666714  0.3333333333333286
  0.7038474399937587  0.6666666666666714  0.8333333333333286
  0.7479799195764412  0.3333333333333286  0.1666666666666714
  0.7479799195764412  0.3333333333333286  0.6666666666666714
  0.7479799195764412  0.8333333333333286  0.1666666666666714
  0.7479799195764412  0.8333333333333286  0.6666666666666714
  0.7920206323499659  0.1666666666666714  0.3333333333333286
  0.7920206323499659  0.1666666666666714  0.8333333333333286
  0.7920206323499659  0.6666666666666714  0.3333333333333286
  0.7920206323499659  0.6666666666666714  0.8333333333333286
  0.8357984467238567  0.3333333333333286  0.1666666666666714
  0.8357984467238567  0.3333333333333286  0.6666666666666714
  0.8357984467238567  0.8333333333333286  0.1666666666666714
  0.8357984467238567  0.8333333333333286  0.6666666666666714
  0.3829769914036707  0.3333333333333286  0.1666666666666714
  0.3829769914036707  0.3333333333333286  0.6666666666666714
  0.3829769914036707  0.8333333333333286  0.1666666666666714
  0.3829769914036707  0.8333333333333286  0.6666666666666714
  0.4318086681368700  0.1666666666666714  0.3333333333333286
  0.4318086681368700  0.1666666666666714  0.8333333333333286
  0.4318086681368700  0.6666666666666714  0.3333333333333286
  0.4318086681368700  0.6666666666666714  0.8333333333333286
  0.4806413476862104  0.3333333333333286  0.1666666666666714
  0.4806413476862104  0.3333333333333286  0.6666666666666714
  0.4806413476862104  0.8333333333333286  0.1666666666666714
  0.4806413476862104  0.8333333333333286  0.6666666666666714
  0.8829769914036705  0.1666666666666714  0.3333333333333286
  0.8829769914036705  0.1666666666666714  0.8333333333333286
  0.8829769914036705  0.6666666666666714  0.3333333333333286
  0.8829769914036705  0.6666666666666714  0.8333333333333286
  0.9318086681368692  0.3333333333333286  0.1666666666666714
  0.9318086681368692  0.3333333333333286  0.6666666666666714
  0.9318086681368692  0.8333333333333286  0.1666666666666714
  0.9318086681368692  0.8333333333333286  0.6666666666666714
  0.9806413476862029  0.1666666666666714  0.3333333333333286
  0.9806413476862029  0.1666666666666714  0.8333333333333286
  0.9806413476862029  0.6666666666666714  0.3333333333333286
  0.9806413476862029  0.6666666666666714  0.8333333333333286
 
  0.00000000E+00  0.00000000E+00  0.00000000E+00
  0.00000000E+00  0.00000000E+00  0.00000000E+00
  0.00000000E+00  0.00000000E+00  0.00000000E+00
  0.00000000E+00  0.00000000E+00  0.00000000E+00
  0.00000000E+00  0.00000000E+00  0.00000000E+00
  0.00000000E+00  0.00000000E+00  0.00000000E+00
  0.00000000E+00  0.00000000E+00  0.00000000E+00
  0.00000000E+00  0.00000000E+00  0.00000000E+00
  0.00000000E+00  0.00000000E+00  0.00000000E+00
  0.00000000E+00  0.00000000E+00  0.00000000E+00
  0.00000000E+00  0.00000000E+00  0.00000000E+00
  0.00000000E+00  0.00000000E+00  0.00000000E+00
  0.00000000E+00  0.00000000E+00  0.00000000E+00
  0.00000000E+00  0.00000000E+00  0.00000000E+00
  0.00000000E+00  0.00000000E+00  0.00000000E+00
  0.00000000E+00  0.00000000E+00  0.00000000E+00
  0.00000000E+00  0.00000000E+00  0.00000000E+00
  0.00000000E+00  0.00000000E+00  0.00000000E+00
  0.00000000E+00  0.00000000E+00  0.00000000E+00
  0.00000000E+00  0.00000000E+00  0.00000000E+00
  0.00000000E+00  0.00000000E+00  0.00000000E+00
  0.00000000E+00  0.00000000E+00  0.00000000E+00
  0.00000000E+00  0.00000000E+00  0.00000000E+00
  0.00000000E+00  0.00000000E+00  0.00000000E+00
  0.00000000E+00  0.00000000E+00  0.00000000E+00
  0.00000000E+00  0.00000000E+00  0.00000000E+00
  0.00000000E+00  0.00000000E+00  0.00000000E+00
  0.00000000E+00  0.00000000E+00  0.00000000E+00
  0.00000000E+00  0.00000000E+00  0.00000000E+00
  0.00000000E+00  0.00000000E+00  0.00000000E+00
  0.00000000E+00  0.00000000E+00  0.00000000E+00
  0.00000000E+00  0.00000000E+00  0.00000000E+00
  0.00000000E+00  0.00000000E+00  0.00000000E+00
  0.00000000E+00  0.00000000E+00  0.00000000E+00
  0.00000000E+00  0.00000000E+00  0.00000000E+00
  0.00000000E+00  0.00000000E+00  0.00000000E+00
  0.00000000E+00  0.00000000E+00  0.00000000E+00
  0.00000000E+00  0.00000000E+00  0.00000000E+00
  0.00000000E+00  0.00000000E+00  0.00000000E+00
  0.00000000E+00  0.00000000E+00  0.00000000E+00
  0.00000000E+00  0.00000000E+00  0.00000000E+00
  0.00000000E+00  0.00000000E+00  0.00000000E+00
  0.00000000E+00  0.00000000E+00  0.00000000E+00
  0.00000000E+00  0.00000000E+00  0.00000000E+00
  0.00000000E+00  0.00000000E+00  0.00000000E+00
  0.00000000E+00  0.00000000E+00  0.00000000E+00
  0.00000000E+00  0.00000000E+00  0.00000000E+00
  0.00000000E+00  0.00000000E+00  0.00000000E+00
  0.00000000E+00  0.00000000E+00  0.00000000E+00
  0.00000000E+00  0.00000000E+00  0.00000000E+00
  0.00000000E+00  0.00000000E+00  0.00000000E+00
  0.00000000E+00  0.00000000E+00  0.00000000E+00
  0.00000000E+00  0.00000000E+00  0.00000000E+00
  0.00000000E+00  0.00000000E+00  0.00000000E+00
  0.00000000E+00  0.00000000E+00  0.00000000E+00
  0.00000000E+00  0.00000000E+00  0.00000000E+00
  0.00000000E+00  0.00000000E+00  0.00000000E+00
  0.00000000E+00  0.00000000E+00  0.00000000E+00
  0.00000000E+00  0.00000000E+00  0.00000000E+00
  0.00000000E+00  0.00000000E+00  0.00000000E+00
  0.00000000E+00  0.00000000E+00  0.00000000E+00
  0.00000000E+00  0.00000000E+00  0.00000000E+00
  0.00000000E+00  0.00000000E+00  0.00000000E+00
  0.00000000E+00  0.00000000E+00  0.00000000E+00
  0.00000000E+00  0.00000000E+00  0.00000000E+00
  0.00000000E+00  0.00000000E+00  0.00000000E+00
  0.00000000E+00  0.00000000E+00  0.00000000E+00
  0.00000000E+00  0.00000000E+00  0.00000000E+00
  0.00000000E+00  0.00000000E+00  0.00000000E+00
  0.00000000E+00  0.00000000E+00  0.00000000E+00
  0.00000000E+00  0.00000000E+00  0.00000000E+00
  0.00000000E+00  0.00000000E+00  0.00000000E+00
  0.00000000E+00  0.00000000E+00  0.00000000E+00
  0.00000000E+00  0.00000000E+00  0.00000000E+00
  0.00000000E+00  0.00000000E+00  0.00000000E+00
  0.00000000E+00  0.00000000E+00  0.00000000E+00
  0.00000000E+00  0.00000000E+00  0.00000000E+00
  0.00000000E+00  0.00000000E+00  0.00000000E+00
  0.00000000E+00  0.00000000E+00  0.00000000E+00
  0.00000000E+00  0.00000000E+00  0.00000000E+00
  0.00000000E+00  0.00000000E+00  0.00000000E+00
  0.00000000E+00  0.00000000E+00  0.00000000E+00
  0.00000000E+00  0.00000000E+00  0.00000000E+00
  0.00000000E+00  0.00000000E+00  0.00000000E+00
  0.00000000E+00  0.00000000E+00  0.00000000E+00
  0.00000000E+00  0.00000000E+00  0.00000000E+00
  0.00000000E+00  0.00000000E+00  0.00000000E+00
  0.00000000E+00  0.00000000E+00  0.00000000E+00
