generated by phonopy                    
    1.006655604652112     
    44.3081286855610443    0.0000000000000000    0.0000000000000000
     0.0000000000000000    5.1724602238568096   -0.0000000000000002
     0.0000000000000000   -2.5862301119284052    4.4794819539245410
   Co   Ru
    64    24
Direct
  0.0277056212032472  0.3333333333333286  0.1666666666666714
  0.0277056212032472  0.3333333333333286  0.6666666666666714
  0.0277056212032472  0.8333333333333286  0.1666666666666714
  0.0277056212032472  0.8333333333333286  0.6666666666666714
  0.0715264654207018  0.1666666666666714  0.3333333333333286
  0.0715264654207018  0.1666666666666714  0.8333333333333286
  0.0715264654207018  0.6666666666666714  0.3333333333333286
  0.0715264654207018  0.6666666666666714  0.8333333333333286
  0.1156349748554850  0.3333333333333286  0.1666666666666714
  0.1156349748554850  0.3333333333333286  0.6666666666666714
  0.1156349748554850  0.8333333333333286  0.1666666666666714
  0.1156349748554850  0.8333333333333286  0.6666666666666714
  0.1598020918227404  0.1666666666666714  0.3333333333333286
  0.1598020918227404  0.1666666666666714  0.8333333333333286
  0.1598020918227404  0.6666666666666714  0.3333333333333286
  0.1598020918227404  0.6666666666666714  0.8333333333333286
  0.2038765365696133  0.3333333333333286  0.1666666666666714
  0.2038765365696133  0.3333333333333286  0.6666666666666714
  0.2038765365696133  0.8333333333333286  0.1666666666666714
  0.2038765365696133  0.8333333333333286  0.6666666666666714
  0.2480305812015460  0.1666666666666714  0.3333333333333286
  0.2480305812015460  0.1666666666666714  0.8333333333333286
  0.2480305812015460  0.6666666666666714  0.3333333333333286
  0.2480305812015460  0.6666666666666714  0.8333333333333286
  0.2921148952075663  0.3333333333333286  0.1666666666666714
  0.2921148952075663  0.3333333333333286  0.6666666666666714
  0.2921148952075663  0.8333333333333286  0.1666666666666714
  0.2921148952075663  0.8333333333333286  0.6666666666666714
  0.3359119952751433  0.1666666666666714  0.3333333333333286
  0.3359119952751433  0.1666666666666714  0.8333333333333286
  0.3359119952751433  0.6666666666666714  0.3333333333333286
  0.3359119952751433  0.6666666666666714  0.8333333333333286
  0.5277056212032473  0.1666666666666714  0.3333333333333286
  0.5277056212032473  0.1666666666666714  0.8333333333333286
  0.5277056212032473  0.6666666666666714  0.3333333333333286
  0.5277056212032473  0.6666666666666714  0.8333333333333286
  0.5715264654207012  0.3333333333333286  0.1666666666666714
  0.5715264654207012  0.3333333333333286  0.6666666666666714
  0.5715264654207012  0.8333333333333286  0.1666666666666714
  0.5715264654207012  0.8333333333333286  0.6666666666666714
  0.6156349748554848  0.1666666666666714  0.3333333333333286
  0.6156349748554848  0.1666666666666714  0.8333333333333286
  0.6156349748554848  0.6666666666666714  0.3333333333333286
  0.6156349748554848  0.6666666666666714  0.8333333333333286
  0.6598020918227402  0.3333333333333286  0.1666666666666714
  0.6598020918227402  0.3333333333333286  0.6666666666666714
  0.6598020918227402  0.8333333333333286  0.1666666666666714
  0.6598020918227402  0.8333333333333286  0.6666666666666714
  0.7038765365696132  0.1666666666666714  0.3333333333333286
  0.7038765365696132  0.1666666666666714  0.8333333333333286
  0.7038765365696132  0.6666666666666714  0.3333333333333286
  0.7038765365696132  0.6666666666666714  0.8333333333333286
  0.7480305812015456  0.3333333333333286  0.1666666666666714
  0.7480305812015456  0.3333333333333286  0.6666666666666714
  0.7480305812015456  0.8333333333333286  0.1666666666666714
  0.7480305812015456  0.8333333333333286  0.6666666666666714
  0.7921148952075668  0.1666666666666714  0.3333333333333286
  0.7921148952075668  0.1666666666666714  0.8333333333333286
  0.7921148952075668  0.6666666666666714  0.3333333333333286
  0.7921148952075668  0.6666666666666714  0.8333333333333286
  0.8359119952751504  0.3333333333333286  0.1666666666666714
  0.8359119952751504  0.3333333333333286  0.6666666666666714
  0.8359119952751504  0.8333333333333286  0.1666666666666714
  0.8359119952751504  0.8333333333333286  0.6666666666666714
  0.3830925374699408  0.3333333333333286  0.1666666666666714
  0.3830925374699408  0.3333333333333286  0.6666666666666714
  0.3830925374699408  0.8333333333333286  0.1666666666666714
  0.3830925374699408  0.8333333333333286  0.6666666666666714
  0.4317978118492816  0.1666666666666714  0.3333333333333286
  0.4317978118492816  0.1666666666666714  0.8333333333333286
  0.4317978118492816  0.6666666666666714  0.3333333333333286
  0.4317978118492816  0.6666666666666714  0.8333333333333286
  0.4805064891247491  0.3333333333333286  0.1666666666666714
  0.4805064891247491  0.3333333333333286  0.6666666666666714
  0.4805064891247491  0.8333333333333286  0.1666666666666714
  0.4805064891247491  0.8333333333333286  0.6666666666666714
  0.8830925374699408  0.1666666666666714  0.3333333333333286
  0.8830925374699408  0.1666666666666714  0.8333333333333286
  0.8830925374699408  0.6666666666666714  0.3333333333333286
  0.8830925374699408  0.6666666666666714  0.8333333333333286
  0.9317978118492815  0.3333333333333286  0.1666666666666714
  0.9317978118492815  0.3333333333333286  0.6666666666666714
  0.9317978118492815  0.8333333333333286  0.1666666666666714
  0.9317978118492815  0.8333333333333286  0.6666666666666714
  0.9805064891247426  0.1666666666666714  0.3333333333333286
  0.9805064891247426  0.1666666666666714  0.8333333333333286
  0.9805064891247426  0.6666666666666714  0.3333333333333286
  0.9805064891247426  0.6666666666666714  0.8333333333333286
 
  0.00000000E+00  0.00000000E+00  0.00000000E+00
  0.00000000E+00  0.00000000E+00  0.00000000E+00
  0.00000000E+00  0.00000000E+00  0.00000000E+00
  0.00000000E+00  0.00000000E+00  0.00000000E+00
  0.00000000E+00  0.00000000E+00  0.00000000E+00
  0.00000000E+00  0.00000000E+00  0.00000000E+00
  0.00000000E+00  0.00000000E+00  0.00000000E+00
  0.00000000E+00  0.00000000E+00  0.00000000E+00
  0.00000000E+00  0.00000000E+00  0.00000000E+00
  0.00000000E+00  0.00000000E+00  0.00000000E+00
  0.00000000E+00  0.00000000E+00  0.00000000E+00
  0.00000000E+00  0.00000000E+00  0.00000000E+00
  0.00000000E+00  0.00000000E+00  0.00000000E+00
  0.00000000E+00  0.00000000E+00  0.00000000E+00
  0.00000000E+00  0.00000000E+00  0.00000000E+00
  0.00000000E+00  0.00000000E+00  0.00000000E+00
  0.00000000E+00  0.00000000E+00  0.00000000E+00
  0.00000000E+00  0.00000000E+00  0.00000000E+00
  0.00000000E+00  0.00000000E+00  0.00000000E+00
  0.00000000E+00  0.00000000E+00  0.00000000E+00
  0.00000000E+00  0.00000000E+00  0.00000000E+00
  0.00000000E+00  0.00000000E+00  0.00000000E+00
  0.00000000E+00  0.00000000E+00  0.00000000E+00
  0.00000000E+00  0.00000000E+00  0.00000000E+00
  0.00000000E+00  0.00000000E+00  0.00000000E+00
  0.00000000E+00  0.00000000E+00  0.00000000E+00
  0.00000000E+00  0.00000000E+00  0.00000000E+00
  0.00000000E+00  0.00000000E+00  0.00000000E+00
  0.00000000E+00  0.00000000E+00  0.00000000E+00
  0.00000000E+00  0.00000000E+00  0.00000000E+00
  0.00000000E+00  0.00000000E+00  0.00000000E+00
  0.00000000E+00  0.00000000E+00  0.00000000E+00
  0.00000000E+00  0.00000000E+00  0.00000000E+00
  0.00000000E+00  0.00000000E+00  0.00000000E+00
  0.00000000E+00  0.00000000E+00  0.00000000E+00
  0.00000000E+00  0.00000000E+00  0.00000000E+00
  0.00000000E+00  0.00000000E+00  0.00000000E+00
  0.00000000E+00  0.00000000E+00  0.00000000E+00
  0.00000000E+00  0.00000000E+00  0.00000000E+00
  0.00000000E+00  0.00000000E+00  0.00000000E+00
  0.00000000E+00  0.00000000E+00  0.00000000E+00
  0.00000000E+00  0.00000000E+00  0.00000000E+00
  0.00000000E+00  0.00000000E+00  0.00000000E+00
  0.00000000E+00  0.00000000E+00  0.00000000E+00
  0.00000000E+00  0.00000000E+00  0.00000000E+00
  0.00000000E+00  0.00000000E+00  0.00000000E+00
  0.00000000E+00  0.00000000E+00  0.00000000E+00
  0.00000000E+00  0.00000000E+00  0.00000000E+00
  0.00000000E+00  0.00000000E+00  0.00000000E+00
  0.00000000E+00  0.00000000E+00  0.00000000E+00
  0.00000000E+00  0.00000000E+00  0.00000000E+00
  0.00000000E+00  0.00000000E+00  0.00000000E+00
  0.00000000E+00  0.00000000E+00  0.00000000E+00
  0.00000000E+00  0.00000000E+00  0.00000000E+00
  0.00000000E+00  0.00000000E+00  0.00000000E+00
  0.00000000E+00  0.00000000E+00  0.00000000E+00
  0.00000000E+00  0.00000000E+00  0.00000000E+00
  0.00000000E+00  0.00000000E+00  0.00000000E+00
  0.00000000E+00  0.00000000E+00  0.00000000E+00
  0.00000000E+00  0.00000000E+00  0.00000000E+00
  0.00000000E+00  0.00000000E+00  0.00000000E+00
  0.00000000E+00  0.00000000E+00  0.00000000E+00
  0.00000000E+00  0.00000000E+00  0.00000000E+00
  0.00000000E+00  0.00000000E+00  0.00000000E+00
  0.00000000E+00  0.00000000E+00  0.00000000E+00
  0.00000000E+00  0.00000000E+00  0.00000000E+00
  0.00000000E+00  0.00000000E+00  0.00000000E+00
  0.00000000E+00  0.00000000E+00  0.00000000E+00
  0.00000000E+00  0.00000000E+00  0.00000000E+00
  0.00000000E+00  0.00000000E+00  0.00000000E+00
  0.00000000E+00  0.00000000E+00  0.00000000E+00
  0.00000000E+00  0.00000000E+00  0.00000000E+00
  0.00000000E+00  0.00000000E+00  0.00000000E+00
  0.00000000E+00  0.00000000E+00  0.00000000E+00
  0.00000000E+00  0.00000000E+00  0.00000000E+00
  0.00000000E+00  0.00000000E+00  0.00000000E+00
  0.00000000E+00  0.00000000E+00  0.00000000E+00
  0.00000000E+00  0.00000000E+00  0.00000000E+00
  0.00000000E+00  0.00000000E+00  0.00000000E+00
  0.00000000E+00  0.00000000E+00  0.00000000E+00
  0.00000000E+00  0.00000000E+00  0.00000000E+00
  0.00000000E+00  0.00000000E+00  0.00000000E+00
  0.00000000E+00  0.00000000E+00  0.00000000E+00
  0.00000000E+00  0.00000000E+00  0.00000000E+00
  0.00000000E+00  0.00000000E+00  0.00000000E+00
  0.00000000E+00  0.00000000E+00  0.00000000E+00
  0.00000000E+00  0.00000000E+00  0.00000000E+00
  0.00000000E+00  0.00000000E+00  0.00000000E+00
