generated by phonopy                    
   0.9998993231978546     
    44.3015853122368384    0.0000000000000000   -0.0000000000000000
     0.0000000000000000    5.1728421976435017   -0.0000000000000002
     0.0000000000000000   -2.5864210988217513    4.4798127529274074
   Co   Ru
    64    24
Direct
  0.0279291468232001  0.3333333333333286  0.1666666666666714
  0.0279291468232001  0.3333333333333286  0.6666666666666714
  0.0279291468232001  0.8333333333333286  0.1666666666666714
  0.0279291468232001  0.8333333333333286  0.6666666666666714
  0.0716742914811276  0.1666666666666714  0.3333333333333286
  0.0716742914811276  0.1666666666666714  0.8333333333333286
  0.0716742914811276  0.6666666666666714  0.3333333333333286
  0.0716742914811276  0.6666666666666714  0.8333333333333286
  0.1156938162513308  0.3333333333333286  0.1666666666666714
  0.1156938162513308  0.3333333333333286  0.6666666666666714
  0.1156938162513308  0.8333333333333286  0.1666666666666714
  0.1156938162513308  0.8333333333333286  0.6666666666666714
  0.1598092475701285  0.1666666666666714  0.3333333333333286
  0.1598092475701285  0.1666666666666714  0.8333333333333286
  0.1598092475701285  0.6666666666666714  0.3333333333333286
  0.1598092475701285  0.6666666666666714  0.8333333333333286
  0.2038287054794717  0.3333333333333286  0.1666666666666714
  0.2038287054794717  0.3333333333333286  0.6666666666666714
  0.2038287054794717  0.8333333333333286  0.1666666666666714
  0.2038287054794717  0.8333333333333286  0.6666666666666714
  0.2479454227299458  0.1666666666666714  0.3333333333333286
  0.2479454227299458  0.1666666666666714  0.8333333333333286
  0.2479454227299458  0.6666666666666714  0.3333333333333286
  0.2479454227299458  0.6666666666666714  0.8333333333333286
  0.2919658129435688  0.3333333333333286  0.1666666666666714
  0.2919658129435688  0.3333333333333286  0.6666666666666714
  0.2919658129435688  0.8333333333333286  0.1666666666666714
  0.2919658129435688  0.8333333333333286  0.6666666666666714
  0.3357079990277035  0.1666666666666714  0.3333333333333286
  0.3357079990277035  0.1666666666666714  0.8333333333333286
  0.3357079990277035  0.6666666666666714  0.3333333333333286
  0.3357079990277035  0.6666666666666714  0.8333333333333286
  0.5279291468231998  0.1666666666666714  0.3333333333333286
  0.5279291468231998  0.1666666666666714  0.8333333333333286
  0.5279291468231998  0.6666666666666714  0.3333333333333286
  0.5279291468231998  0.6666666666666714  0.8333333333333286
  0.5716742914811269  0.3333333333333286  0.1666666666666714
  0.5716742914811269  0.3333333333333286  0.6666666666666714
  0.5716742914811269  0.8333333333333286  0.1666666666666714
  0.5716742914811269  0.8333333333333286  0.6666666666666714
  0.6156938162513312  0.1666666666666714  0.3333333333333286
  0.6156938162513312  0.1666666666666714  0.8333333333333286
  0.6156938162513312  0.6666666666666714  0.3333333333333286
  0.6156938162513312  0.6666666666666714  0.8333333333333286
  0.6598092475701286  0.3333333333333286  0.1666666666666714
  0.6598092475701286  0.3333333333333286  0.6666666666666714
  0.6598092475701286  0.8333333333333286  0.1666666666666714
  0.6598092475701286  0.8333333333333286  0.6666666666666714
  0.7038287054794716  0.1666666666666714  0.3333333333333286
  0.7038287054794716  0.1666666666666714  0.8333333333333286
  0.7038287054794716  0.6666666666666714  0.3333333333333286
  0.7038287054794716  0.6666666666666714  0.8333333333333286
  0.7479454227299461  0.3333333333333286  0.1666666666666714
  0.7479454227299461  0.3333333333333286  0.6666666666666714
  0.7479454227299461  0.8333333333333286  0.1666666666666714
  0.7479454227299461  0.8333333333333286  0.6666666666666714
  0.7919658129435687  0.1666666666666714  0.3333333333333286
  0.7919658129435687  0.1666666666666714  0.8333333333333286
  0.7919658129435687  0.6666666666666714  0.3333333333333286
  0.7919658129435687  0.6666666666666714  0.8333333333333286
  0.8357079990277106  0.3333333333333286  0.1666666666666714
  0.8357079990277106  0.3333333333333286  0.6666666666666714
  0.8357079990277106  0.8333333333333286  0.1666666666666714
  0.8357079990277106  0.8333333333333286  0.6666666666666714
  0.3828759169165760  0.3333333333333286  0.1666666666666714
  0.3828759169165760  0.3333333333333286  0.6666666666666714
  0.3828759169165760  0.8333333333333286  0.1666666666666714
  0.3828759169165760  0.8333333333333286  0.6666666666666714
  0.4318153442721202  0.1666666666666714  0.3333333333333286
  0.4318153442721202  0.1666666666666714  0.8333333333333286
  0.4318153442721202  0.6666666666666714  0.3333333333333286
  0.4318153442721202  0.6666666666666714  0.8333333333333286
  0.4807542965048411  0.3333333333333286  0.1666666666666714
  0.4807542965048411  0.3333333333333286  0.6666666666666714
  0.4807542965048411  0.8333333333333286  0.1666666666666714
  0.4807542965048411  0.8333333333333286  0.6666666666666714
  0.8828759169165762  0.1666666666666714  0.3333333333333286
  0.8828759169165762  0.1666666666666714  0.8333333333333286
  0.8828759169165762  0.6666666666666714  0.3333333333333286
  0.8828759169165762  0.6666666666666714  0.8333333333333286
  0.9318153442721198  0.3333333333333286  0.1666666666666714
  0.9318153442721198  0.3333333333333286  0.6666666666666714
  0.9318153442721198  0.8333333333333286  0.1666666666666714
  0.9318153442721198  0.8333333333333286  0.6666666666666714
  0.9807542965048336  0.1666666666666714  0.3333333333333286
  0.9807542965048336  0.1666666666666714  0.8333333333333286
  0.9807542965048336  0.6666666666666714  0.3333333333333286
  0.9807542965048336  0.6666666666666714  0.8333333333333286
 
  0.00000000E+00  0.00000000E+00  0.00000000E+00
  0.00000000E+00  0.00000000E+00  0.00000000E+00
  0.00000000E+00  0.00000000E+00  0.00000000E+00
  0.00000000E+00  0.00000000E+00  0.00000000E+00
  0.00000000E+00  0.00000000E+00  0.00000000E+00
  0.00000000E+00  0.00000000E+00  0.00000000E+00
  0.00000000E+00  0.00000000E+00  0.00000000E+00
  0.00000000E+00  0.00000000E+00  0.00000000E+00
  0.00000000E+00  0.00000000E+00  0.00000000E+00
  0.00000000E+00  0.00000000E+00  0.00000000E+00
  0.00000000E+00  0.00000000E+00  0.00000000E+00
  0.00000000E+00  0.00000000E+00  0.00000000E+00
  0.00000000E+00  0.00000000E+00  0.00000000E+00
  0.00000000E+00  0.00000000E+00  0.00000000E+00
  0.00000000E+00  0.00000000E+00  0.00000000E+00
  0.00000000E+00  0.00000000E+00  0.00000000E+00
  0.00000000E+00  0.00000000E+00  0.00000000E+00
  0.00000000E+00  0.00000000E+00  0.00000000E+00
  0.00000000E+00  0.00000000E+00  0.00000000E+00
  0.00000000E+00  0.00000000E+00  0.00000000E+00
  0.00000000E+00  0.00000000E+00  0.00000000E+00
  0.00000000E+00  0.00000000E+00  0.00000000E+00
  0.00000000E+00  0.00000000E+00  0.00000000E+00
  0.00000000E+00  0.00000000E+00  0.00000000E+00
  0.00000000E+00  0.00000000E+00  0.00000000E+00
  0.00000000E+00  0.00000000E+00  0.00000000E+00
  0.00000000E+00  0.00000000E+00  0.00000000E+00
  0.00000000E+00  0.00000000E+00  0.00000000E+00
  0.00000000E+00  0.00000000E+00  0.00000000E+00
  0.00000000E+00  0.00000000E+00  0.00000000E+00
  0.00000000E+00  0.00000000E+00  0.00000000E+00
  0.00000000E+00  0.00000000E+00  0.00000000E+00
  0.00000000E+00  0.00000000E+00  0.00000000E+00
  0.00000000E+00  0.00000000E+00  0.00000000E+00
  0.00000000E+00  0.00000000E+00  0.00000000E+00
  0.00000000E+00  0.00000000E+00  0.00000000E+00
  0.00000000E+00  0.00000000E+00  0.00000000E+00
  0.00000000E+00  0.00000000E+00  0.00000000E+00
  0.00000000E+00  0.00000000E+00  0.00000000E+00
  0.00000000E+00  0.00000000E+00  0.00000000E+00
  0.00000000E+00  0.00000000E+00  0.00000000E+00
  0.00000000E+00  0.00000000E+00  0.00000000E+00
  0.00000000E+00  0.00000000E+00  0.00000000E+00
  0.00000000E+00  0.00000000E+00  0.00000000E+00
  0.00000000E+00  0.00000000E+00  0.00000000E+00
  0.00000000E+00  0.00000000E+00  0.00000000E+00
  0.00000000E+00  0.00000000E+00  0.00000000E+00
  0.00000000E+00  0.00000000E+00  0.00000000E+00
  0.00000000E+00  0.00000000E+00  0.00000000E+00
  0.00000000E+00  0.00000000E+00  0.00000000E+00
  0.00000000E+00  0.00000000E+00  0.00000000E+00
  0.00000000E+00  0.00000000E+00  0.00000000E+00
  0.00000000E+00  0.00000000E+00  0.00000000E+00
  0.00000000E+00  0.00000000E+00  0.00000000E+00
  0.00000000E+00  0.00000000E+00  0.00000000E+00
  0.00000000E+00  0.00000000E+00  0.00000000E+00
  0.00000000E+00  0.00000000E+00  0.00000000E+00
  0.00000000E+00  0.00000000E+00  0.00000000E+00
  0.00000000E+00  0.00000000E+00  0.00000000E+00
  0.00000000E+00  0.00000000E+00  0.00000000E+00
  0.00000000E+00  0.00000000E+00  0.00000000E+00
  0.00000000E+00  0.00000000E+00  0.00000000E+00
  0.00000000E+00  0.00000000E+00  0.00000000E+00
  0.00000000E+00  0.00000000E+00  0.00000000E+00
  0.00000000E+00  0.00000000E+00  0.00000000E+00
  0.00000000E+00  0.00000000E+00  0.00000000E+00
  0.00000000E+00  0.00000000E+00  0.00000000E+00
  0.00000000E+00  0.00000000E+00  0.00000000E+00
  0.00000000E+00  0.00000000E+00  0.00000000E+00
  0.00000000E+00  0.00000000E+00  0.00000000E+00
  0.00000000E+00  0.00000000E+00  0.00000000E+00
  0.00000000E+00  0.00000000E+00  0.00000000E+00
  0.00000000E+00  0.00000000E+00  0.00000000E+00
  0.00000000E+00  0.00000000E+00  0.00000000E+00
  0.00000000E+00  0.00000000E+00  0.00000000E+00
  0.00000000E+00  0.00000000E+00  0.00000000E+00
  0.00000000E+00  0.00000000E+00  0.00000000E+00
  0.00000000E+00  0.00000000E+00  0.00000000E+00
  0.00000000E+00  0.00000000E+00  0.00000000E+00
  0.00000000E+00  0.00000000E+00  0.00000000E+00
  0.00000000E+00  0.00000000E+00  0.00000000E+00
  0.00000000E+00  0.00000000E+00  0.00000000E+00
  0.00000000E+00  0.00000000E+00  0.00000000E+00
  0.00000000E+00  0.00000000E+00  0.00000000E+00
  0.00000000E+00  0.00000000E+00  0.00000000E+00
  0.00000000E+00  0.00000000E+00  0.00000000E+00
  0.00000000E+00  0.00000000E+00  0.00000000E+00
  0.00000000E+00  0.00000000E+00  0.00000000E+00
