generated by phonopy                    
   1.01000000000000     
    48.2803139618881403   -0.0000000000000000    0.0000000000000000
    -0.0000000000000000    5.1608723678518729    0.0000000000000000
     0.0000000000000000   -2.5804361839259360    4.4694465762488687
   Co   Ru
    72    24
Direct
  0.0254501762310811  0.3333333333333286  0.1666666666666714
  0.0254501762310811  0.3333333333333286  0.6666666666666714
  0.0254501762310811  0.8333333333333286  0.1666666666666714
  0.0254501762310811  0.8333333333333286  0.6666666666666714
  0.0658270164626733  0.1666666666666714  0.3333333333333286
  0.0658270164626733  0.1666666666666714  0.8333333333333286
  0.0658270164626733  0.6666666666666714  0.3333333333333286
  0.0658270164626733  0.6666666666666714  0.8333333333333286
  0.1064078148844466  0.3333333333333286  0.1666666666666714
  0.1064078148844466  0.3333333333333286  0.6666666666666714
  0.1064078148844466  0.8333333333333286  0.1666666666666714
  0.1064078148844466  0.8333333333333286  0.6666666666666714
  0.1469533978879981  0.1666666666666714  0.3333333333333286
  0.1469533978879981  0.1666666666666714  0.8333333333333286
  0.1469533978879981  0.6666666666666714  0.3333333333333286
  0.1469533978879981  0.6666666666666714  0.8333333333333286
  0.1875075057261410  0.3333333333333286  0.1666666666666714
  0.1875075057261410  0.3333333333333286  0.6666666666666714
  0.1875075057261410  0.8333333333333286  0.1666666666666714
  0.1875075057261410  0.8333333333333286  0.6666666666666714
  0.2280596522555347  0.1666666666666714  0.3333333333333286
  0.2280596522555347  0.1666666666666714  0.8333333333333286
  0.2280596522555347  0.6666666666666714  0.3333333333333286
  0.2280596522555347  0.6666666666666714  0.8333333333333286
  0.2685996240931278  0.3333333333333286  0.1666666666666714
  0.2685996240931278  0.3333333333333286  0.6666666666666714
  0.2685996240931278  0.8333333333333286  0.1666666666666714
  0.2685996240931278  0.8333333333333286  0.6666666666666714
  0.3091724860908450  0.1666666666666714  0.3333333333333286
  0.3091724860908450  0.1666666666666714  0.8333333333333286
  0.3091724860908450  0.6666666666666714  0.3333333333333286
  0.3091724860908450  0.6666666666666714  0.8333333333333286
  0.3495419884632415  0.3333333333333286  0.1666666666666714
  0.3495419884632415  0.3333333333333286  0.6666666666666714
  0.3495419884632415  0.8333333333333286  0.1666666666666714
  0.3495419884632415  0.8333333333333286  0.6666666666666714
  0.5254501762310739  0.3333333333333286  0.1666666666666714
  0.5254501762310739  0.3333333333333286  0.6666666666666714
  0.5254501762310739  0.8333333333333286  0.1666666666666714
  0.5254501762310739  0.8333333333333286  0.6666666666666714
  0.5658270164626730  0.1666666666666714  0.3333333333333286
  0.5658270164626730  0.1666666666666714  0.8333333333333286
  0.5658270164626730  0.6666666666666714  0.3333333333333286
  0.5658270164626730  0.6666666666666714  0.8333333333333286
  0.6064078148844542  0.3333333333333286  0.1666666666666714
  0.6064078148844542  0.3333333333333286  0.6666666666666714
  0.6064078148844542  0.8333333333333286  0.1666666666666714
  0.6064078148844542  0.8333333333333286  0.6666666666666714
  0.6469533978879983  0.1666666666666714  0.3333333333333286
  0.6469533978879983  0.1666666666666714  0.8333333333333286
  0.6469533978879983  0.6666666666666714  0.3333333333333286
  0.6469533978879983  0.6666666666666714  0.8333333333333286
  0.6875075057261485  0.3333333333333286  0.1666666666666714
  0.6875075057261485  0.3333333333333286  0.6666666666666714
  0.6875075057261485  0.8333333333333286  0.1666666666666714
  0.6875075057261485  0.8333333333333286  0.6666666666666714
  0.7280596522555418  0.1666666666666714  0.3333333333333286
  0.7280596522555418  0.1666666666666714  0.8333333333333286
  0.7280596522555418  0.6666666666666714  0.3333333333333286
  0.7280596522555418  0.6666666666666714  0.8333333333333286
  0.7685996240931208  0.3333333333333286  0.1666666666666714
  0.7685996240931208  0.3333333333333286  0.6666666666666714
  0.7685996240931208  0.8333333333333286  0.1666666666666714
  0.7685996240931208  0.8333333333333286  0.6666666666666714
  0.8091724860908448  0.1666666666666714  0.3333333333333286
  0.8091724860908448  0.1666666666666714  0.8333333333333286
  0.8091724860908448  0.6666666666666714  0.3333333333333286
  0.8091724860908448  0.6666666666666714  0.8333333333333286
  0.8495419884632417  0.3333333333333286  0.1666666666666714
  0.8495419884632417  0.3333333333333286  0.6666666666666714
  0.8495419884632417  0.8333333333333286  0.1666666666666714
  0.8495419884632417  0.8333333333333286  0.6666666666666714
  0.3928830817999566  0.1666666666666714  0.3333333333333286
  0.3928830817999566  0.1666666666666714  0.8333333333333286
  0.3928830817999566  0.6666666666666714  0.3333333333333286
  0.3928830817999566  0.6666666666666714  0.8333333333333286
  0.4374931055905422  0.3333333333333286  0.1666666666666714
  0.4374931055905422  0.3333333333333286  0.6666666666666714
  0.4374931055905422  0.8333333333333286  0.1666666666666714
  0.4374931055905422  0.8333333333333286  0.6666666666666714
  0.4821041505143978  0.1666666666666714  0.3333333333333286
  0.4821041505143978  0.1666666666666714  0.8333333333333286
  0.4821041505143978  0.6666666666666714  0.3333333333333286
  0.4821041505143978  0.6666666666666714  0.8333333333333286
  0.8928830817999635  0.1666666666666714  0.3333333333333286
  0.8928830817999635  0.1666666666666714  0.8333333333333286
  0.8928830817999635  0.6666666666666714  0.3333333333333286
  0.8928830817999635  0.6666666666666714  0.8333333333333286
  0.9374931055905488  0.3333333333333286  0.1666666666666714
  0.9374931055905488  0.3333333333333286  0.6666666666666714
  0.9374931055905488  0.8333333333333286  0.1666666666666714
  0.9374931055905488  0.8333333333333286  0.6666666666666714
  0.9821041505143981  0.1666666666666714  0.3333333333333286
  0.9821041505143981  0.1666666666666714  0.8333333333333286
  0.9821041505143981  0.6666666666666714  0.3333333333333286
  0.9821041505143981  0.6666666666666714  0.8333333333333286
 
  0.00000000E+00  0.00000000E+00  0.00000000E+00
  0.00000000E+00  0.00000000E+00  0.00000000E+00
  0.00000000E+00  0.00000000E+00  0.00000000E+00
  0.00000000E+00  0.00000000E+00  0.00000000E+00
  0.00000000E+00  0.00000000E+00  0.00000000E+00
  0.00000000E+00  0.00000000E+00  0.00000000E+00
  0.00000000E+00  0.00000000E+00  0.00000000E+00
  0.00000000E+00  0.00000000E+00  0.00000000E+00
  0.00000000E+00  0.00000000E+00  0.00000000E+00
  0.00000000E+00  0.00000000E+00  0.00000000E+00
  0.00000000E+00  0.00000000E+00  0.00000000E+00
  0.00000000E+00  0.00000000E+00  0.00000000E+00
  0.00000000E+00  0.00000000E+00  0.00000000E+00
  0.00000000E+00  0.00000000E+00  0.00000000E+00
  0.00000000E+00  0.00000000E+00  0.00000000E+00
  0.00000000E+00  0.00000000E+00  0.00000000E+00
  0.00000000E+00  0.00000000E+00  0.00000000E+00
  0.00000000E+00  0.00000000E+00  0.00000000E+00
  0.00000000E+00  0.00000000E+00  0.00000000E+00
  0.00000000E+00  0.00000000E+00  0.00000000E+00
  0.00000000E+00  0.00000000E+00  0.00000000E+00
  0.00000000E+00  0.00000000E+00  0.00000000E+00
  0.00000000E+00  0.00000000E+00  0.00000000E+00
  0.00000000E+00  0.00000000E+00  0.00000000E+00
  0.00000000E+00  0.00000000E+00  0.00000000E+00
  0.00000000E+00  0.00000000E+00  0.00000000E+00
  0.00000000E+00  0.00000000E+00  0.00000000E+00
  0.00000000E+00  0.00000000E+00  0.00000000E+00
  0.00000000E+00  0.00000000E+00  0.00000000E+00
  0.00000000E+00  0.00000000E+00  0.00000000E+00
  0.00000000E+00  0.00000000E+00  0.00000000E+00
  0.00000000E+00  0.00000000E+00  0.00000000E+00
  0.00000000E+00  0.00000000E+00  0.00000000E+00
  0.00000000E+00  0.00000000E+00  0.00000000E+00
  0.00000000E+00  0.00000000E+00  0.00000000E+00
  0.00000000E+00  0.00000000E+00  0.00000000E+00
  0.00000000E+00  0.00000000E+00  0.00000000E+00
  0.00000000E+00  0.00000000E+00  0.00000000E+00
  0.00000000E+00  0.00000000E+00  0.00000000E+00
  0.00000000E+00  0.00000000E+00  0.00000000E+00
  0.00000000E+00  0.00000000E+00  0.00000000E+00
  0.00000000E+00  0.00000000E+00  0.00000000E+00
  0.00000000E+00  0.00000000E+00  0.00000000E+00
  0.00000000E+00  0.00000000E+00  0.00000000E+00
  0.00000000E+00  0.00000000E+00  0.00000000E+00
  0.00000000E+00  0.00000000E+00  0.00000000E+00
  0.00000000E+00  0.00000000E+00  0.00000000E+00
  0.00000000E+00  0.00000000E+00  0.00000000E+00
  0.00000000E+00  0.00000000E+00  0.00000000E+00
  0.00000000E+00  0.00000000E+00  0.00000000E+00
  0.00000000E+00  0.00000000E+00  0.00000000E+00
  0.00000000E+00  0.00000000E+00  0.00000000E+00
  0.00000000E+00  0.00000000E+00  0.00000000E+00
  0.00000000E+00  0.00000000E+00  0.00000000E+00
  0.00000000E+00  0.00000000E+00  0.00000000E+00
  0.00000000E+00  0.00000000E+00  0.00000000E+00
  0.00000000E+00  0.00000000E+00  0.00000000E+00
  0.00000000E+00  0.00000000E+00  0.00000000E+00
  0.00000000E+00  0.00000000E+00  0.00000000E+00
  0.00000000E+00  0.00000000E+00  0.00000000E+00
  0.00000000E+00  0.00000000E+00  0.00000000E+00
  0.00000000E+00  0.00000000E+00  0.00000000E+00
  0.00000000E+00  0.00000000E+00  0.00000000E+00
  0.00000000E+00  0.00000000E+00  0.00000000E+00
  0.00000000E+00  0.00000000E+00  0.00000000E+00
  0.00000000E+00  0.00000000E+00  0.00000000E+00
  0.00000000E+00  0.00000000E+00  0.00000000E+00
  0.00000000E+00  0.00000000E+00  0.00000000E+00
  0.00000000E+00  0.00000000E+00  0.00000000E+00
  0.00000000E+00  0.00000000E+00  0.00000000E+00
  0.00000000E+00  0.00000000E+00  0.00000000E+00
  0.00000000E+00  0.00000000E+00  0.00000000E+00
  0.00000000E+00  0.00000000E+00  0.00000000E+00
  0.00000000E+00  0.00000000E+00  0.00000000E+00
  0.00000000E+00  0.00000000E+00  0.00000000E+00
  0.00000000E+00  0.00000000E+00  0.00000000E+00
  0.00000000E+00  0.00000000E+00  0.00000000E+00
  0.00000000E+00  0.00000000E+00  0.00000000E+00
  0.00000000E+00  0.00000000E+00  0.00000000E+00
  0.00000000E+00  0.00000000E+00  0.00000000E+00
  0.00000000E+00  0.00000000E+00  0.00000000E+00
  0.00000000E+00  0.00000000E+00  0.00000000E+00
  0.00000000E+00  0.00000000E+00  0.00000000E+00
  0.00000000E+00  0.00000000E+00  0.00000000E+00
  0.00000000E+00  0.00000000E+00  0.00000000E+00
  0.00000000E+00  0.00000000E+00  0.00000000E+00
  0.00000000E+00  0.00000000E+00  0.00000000E+00
  0.00000000E+00  0.00000000E+00  0.00000000E+00
  0.00000000E+00  0.00000000E+00  0.00000000E+00
  0.00000000E+00  0.00000000E+00  0.00000000E+00
  0.00000000E+00  0.00000000E+00  0.00000000E+00
  0.00000000E+00  0.00000000E+00  0.00000000E+00
  0.00000000E+00  0.00000000E+00  0.00000000E+00
  0.00000000E+00  0.00000000E+00  0.00000000E+00
  0.00000000E+00  0.00000000E+00  0.00000000E+00
  0.00000000E+00  0.00000000E+00  0.00000000E+00
