generated by phonopy                    
   1.00665560465211     
    48.2799869829380697    0.0000000000000000    0.0000000000000000
     0.0000000000000000    5.1608898439726900    0.0000000000000000
     0.0000000000000000   -2.5804449219863446    4.4694617110134542
   Co   Ru
    72    24
Direct
  0.0255519107949880  0.3333333333333286  0.1666666666666714
  0.0255519107949880  0.3333333333333286  0.6666666666666714
  0.0255519107949880  0.8333333333333286  0.1666666666666714
  0.0255519107949880  0.8333333333333286  0.6666666666666714
  0.0659000408567323  0.1666666666666714  0.3333333333333286
  0.0659000408567323  0.1666666666666714  0.8333333333333286
  0.0659000408567323  0.6666666666666714  0.3333333333333286
  0.0659000408567323  0.6666666666666714  0.8333333333333286
  0.1064426045142852  0.3333333333333286  0.1666666666666714
  0.1064426045142852  0.3333333333333286  0.6666666666666714
  0.1064426045142852  0.8333333333333286  0.1666666666666714
  0.1064426045142852  0.8333333333333286  0.6666666666666714
  0.1469763023859016  0.1666666666666714  0.3333333333333286
  0.1469763023859016  0.1666666666666714  0.8333333333333286
  0.1469763023859016  0.6666666666666714  0.3333333333333286
  0.1469763023859016  0.6666666666666714  0.8333333333333286
  0.1875213632473205  0.3333333333333286  0.1666666666666714
  0.1875213632473205  0.3333333333333286  0.6666666666666714
  0.1875213632473205  0.8333333333333286  0.1666666666666714
  0.1875213632473205  0.8333333333333286  0.6666666666666714
  0.2280604617099087  0.1666666666666714  0.3333333333333286
  0.2280604617099087  0.1666666666666714  0.8333333333333286
  0.2280604617099087  0.6666666666666714  0.3333333333333286
  0.2280604617099087  0.6666666666666714  0.8333333333333286
  0.2685785779049894  0.3333333333333286  0.1666666666666714
  0.2685785779049894  0.3333333333333286  0.6666666666666714
  0.2685785779049894  0.8333333333333286  0.1666666666666714
  0.2685785779049894  0.8333333333333286  0.6666666666666714
  0.3090991116326975  0.1666666666666714  0.3333333333333286
  0.3090991116326975  0.1666666666666714  0.8333333333333286
  0.3090991116326975  0.6666666666666714  0.3333333333333286
  0.3090991116326975  0.6666666666666714  0.8333333333333286
  0.3494264244019902  0.3333333333333286  0.1666666666666714
  0.3494264244019902  0.3333333333333286  0.6666666666666714
  0.3494264244019902  0.8333333333333286  0.1666666666666714
  0.3494264244019902  0.8333333333333286  0.6666666666666714
  0.5255519107949809  0.3333333333333286  0.1666666666666714
  0.5255519107949809  0.3333333333333286  0.6666666666666714
  0.5255519107949809  0.8333333333333286  0.1666666666666714
  0.5255519107949809  0.8333333333333286  0.6666666666666714
  0.5659000408567323  0.1666666666666714  0.3333333333333286
  0.5659000408567323  0.1666666666666714  0.8333333333333286
  0.5659000408567323  0.6666666666666714  0.3333333333333286
  0.5659000408567323  0.6666666666666714  0.8333333333333286
  0.6064426045142923  0.3333333333333286  0.1666666666666714
  0.6064426045142923  0.3333333333333286  0.6666666666666714
  0.6064426045142923  0.8333333333333286  0.1666666666666714
  0.6064426045142923  0.8333333333333286  0.6666666666666714
  0.6469763023859016  0.1666666666666714  0.3333333333333286
  0.6469763023859016  0.1666666666666714  0.8333333333333286
  0.6469763023859016  0.6666666666666714  0.3333333333333286
  0.6469763023859016  0.6666666666666714  0.8333333333333286
  0.6875213632473276  0.3333333333333286  0.1666666666666714
  0.6875213632473276  0.3333333333333286  0.6666666666666714
  0.6875213632473276  0.8333333333333286  0.1666666666666714
  0.6875213632473276  0.8333333333333286  0.6666666666666714
  0.7280604617099158  0.1666666666666714  0.3333333333333286
  0.7280604617099158  0.1666666666666714  0.8333333333333286
  0.7280604617099158  0.6666666666666714  0.3333333333333286
  0.7280604617099158  0.6666666666666714  0.8333333333333286
  0.7685785779049823  0.3333333333333286  0.1666666666666714
  0.7685785779049823  0.3333333333333286  0.6666666666666714
  0.7685785779049823  0.8333333333333286  0.1666666666666714
  0.7685785779049823  0.8333333333333286  0.6666666666666714
  0.8090991116326975  0.1666666666666714  0.3333333333333286
  0.8090991116326975  0.1666666666666714  0.8333333333333286
  0.8090991116326975  0.6666666666666714  0.3333333333333286
  0.8090991116326975  0.6666666666666714  0.8333333333333286
  0.8494264244019902  0.3333333333333286  0.1666666666666714
  0.8494264244019902  0.3333333333333286  0.6666666666666714
  0.8494264244019902  0.8333333333333286  0.1666666666666714
  0.8494264244019902  0.8333333333333286  0.6666666666666714
  0.3927644891874991  0.1666666666666714  0.3333333333333286
  0.3927644891874991  0.1666666666666714  0.8333333333333286
  0.3927644891874991  0.6666666666666714  0.3333333333333286
  0.3927644891874991  0.6666666666666714  0.8333333333333286
  0.4374800414029920  0.3333333333333286  0.1666666666666714
  0.4374800414029920  0.3333333333333286  0.6666666666666714
  0.4374800414029920  0.8333333333333286  0.1666666666666714
  0.4374800414029920  0.8333333333333286  0.6666666666666714
  0.4821986719606812  0.1666666666666714  0.3333333333333286
  0.4821986719606812  0.1666666666666714  0.8333333333333286
  0.4821986719606812  0.6666666666666714  0.3333333333333286
  0.4821986719606812  0.6666666666666714  0.8333333333333286
  0.8927644891875062  0.1666666666666714  0.3333333333333286
  0.8927644891875062  0.1666666666666714  0.8333333333333286
  0.8927644891875062  0.6666666666666714  0.3333333333333286
  0.8927644891875062  0.6666666666666714  0.8333333333333286
  0.9374800414029991  0.3333333333333286  0.1666666666666714
  0.9374800414029991  0.3333333333333286  0.6666666666666714
  0.9374800414029991  0.8333333333333286  0.1666666666666714
  0.9374800414029991  0.8333333333333286  0.6666666666666714
  0.9821986719606812  0.1666666666666714  0.3333333333333286
  0.9821986719606812  0.1666666666666714  0.8333333333333286
  0.9821986719606812  0.6666666666666714  0.3333333333333286
  0.9821986719606812  0.6666666666666714  0.8333333333333286
 
  0.00000000E+00  0.00000000E+00  0.00000000E+00
  0.00000000E+00  0.00000000E+00  0.00000000E+00
  0.00000000E+00  0.00000000E+00  0.00000000E+00
  0.00000000E+00  0.00000000E+00  0.00000000E+00
  0.00000000E+00  0.00000000E+00  0.00000000E+00
  0.00000000E+00  0.00000000E+00  0.00000000E+00
  0.00000000E+00  0.00000000E+00  0.00000000E+00
  0.00000000E+00  0.00000000E+00  0.00000000E+00
  0.00000000E+00  0.00000000E+00  0.00000000E+00
  0.00000000E+00  0.00000000E+00  0.00000000E+00
  0.00000000E+00  0.00000000E+00  0.00000000E+00
  0.00000000E+00  0.00000000E+00  0.00000000E+00
  0.00000000E+00  0.00000000E+00  0.00000000E+00
  0.00000000E+00  0.00000000E+00  0.00000000E+00
  0.00000000E+00  0.00000000E+00  0.00000000E+00
  0.00000000E+00  0.00000000E+00  0.00000000E+00
  0.00000000E+00  0.00000000E+00  0.00000000E+00
  0.00000000E+00  0.00000000E+00  0.00000000E+00
  0.00000000E+00  0.00000000E+00  0.00000000E+00
  0.00000000E+00  0.00000000E+00  0.00000000E+00
  0.00000000E+00  0.00000000E+00  0.00000000E+00
  0.00000000E+00  0.00000000E+00  0.00000000E+00
  0.00000000E+00  0.00000000E+00  0.00000000E+00
  0.00000000E+00  0.00000000E+00  0.00000000E+00
  0.00000000E+00  0.00000000E+00  0.00000000E+00
  0.00000000E+00  0.00000000E+00  0.00000000E+00
  0.00000000E+00  0.00000000E+00  0.00000000E+00
  0.00000000E+00  0.00000000E+00  0.00000000E+00
  0.00000000E+00  0.00000000E+00  0.00000000E+00
  0.00000000E+00  0.00000000E+00  0.00000000E+00
  0.00000000E+00  0.00000000E+00  0.00000000E+00
  0.00000000E+00  0.00000000E+00  0.00000000E+00
  0.00000000E+00  0.00000000E+00  0.00000000E+00
  0.00000000E+00  0.00000000E+00  0.00000000E+00
  0.00000000E+00  0.00000000E+00  0.00000000E+00
  0.00000000E+00  0.00000000E+00  0.00000000E+00
  0.00000000E+00  0.00000000E+00  0.00000000E+00
  0.00000000E+00  0.00000000E+00  0.00000000E+00
  0.00000000E+00  0.00000000E+00  0.00000000E+00
  0.00000000E+00  0.00000000E+00  0.00000000E+00
  0.00000000E+00  0.00000000E+00  0.00000000E+00
  0.00000000E+00  0.00000000E+00  0.00000000E+00
  0.00000000E+00  0.00000000E+00  0.00000000E+00
  0.00000000E+00  0.00000000E+00  0.00000000E+00
  0.00000000E+00  0.00000000E+00  0.00000000E+00
  0.00000000E+00  0.00000000E+00  0.00000000E+00
  0.00000000E+00  0.00000000E+00  0.00000000E+00
  0.00000000E+00  0.00000000E+00  0.00000000E+00
  0.00000000E+00  0.00000000E+00  0.00000000E+00
  0.00000000E+00  0.00000000E+00  0.00000000E+00
  0.00000000E+00  0.00000000E+00  0.00000000E+00
  0.00000000E+00  0.00000000E+00  0.00000000E+00
  0.00000000E+00  0.00000000E+00  0.00000000E+00
  0.00000000E+00  0.00000000E+00  0.00000000E+00
  0.00000000E+00  0.00000000E+00  0.00000000E+00
  0.00000000E+00  0.00000000E+00  0.00000000E+00
  0.00000000E+00  0.00000000E+00  0.00000000E+00
  0.00000000E+00  0.00000000E+00  0.00000000E+00
  0.00000000E+00  0.00000000E+00  0.00000000E+00
  0.00000000E+00  0.00000000E+00  0.00000000E+00
  0.00000000E+00  0.00000000E+00  0.00000000E+00
  0.00000000E+00  0.00000000E+00  0.00000000E+00
  0.00000000E+00  0.00000000E+00  0.00000000E+00
  0.00000000E+00  0.00000000E+00  0.00000000E+00
  0.00000000E+00  0.00000000E+00  0.00000000E+00
  0.00000000E+00  0.00000000E+00  0.00000000E+00
  0.00000000E+00  0.00000000E+00  0.00000000E+00
  0.00000000E+00  0.00000000E+00  0.00000000E+00
  0.00000000E+00  0.00000000E+00  0.00000000E+00
  0.00000000E+00  0.00000000E+00  0.00000000E+00
  0.00000000E+00  0.00000000E+00  0.00000000E+00
  0.00000000E+00  0.00000000E+00  0.00000000E+00
  0.00000000E+00  0.00000000E+00  0.00000000E+00
  0.00000000E+00  0.00000000E+00  0.00000000E+00
  0.00000000E+00  0.00000000E+00  0.00000000E+00
  0.00000000E+00  0.00000000E+00  0.00000000E+00
  0.00000000E+00  0.00000000E+00  0.00000000E+00
  0.00000000E+00  0.00000000E+00  0.00000000E+00
  0.00000000E+00  0.00000000E+00  0.00000000E+00
  0.00000000E+00  0.00000000E+00  0.00000000E+00
  0.00000000E+00  0.00000000E+00  0.00000000E+00
  0.00000000E+00  0.00000000E+00  0.00000000E+00
  0.00000000E+00  0.00000000E+00  0.00000000E+00
  0.00000000E+00  0.00000000E+00  0.00000000E+00
  0.00000000E+00  0.00000000E+00  0.00000000E+00
  0.00000000E+00  0.00000000E+00  0.00000000E+00
  0.00000000E+00  0.00000000E+00  0.00000000E+00
  0.00000000E+00  0.00000000E+00  0.00000000E+00
  0.00000000E+00  0.00000000E+00  0.00000000E+00
  0.00000000E+00  0.00000000E+00  0.00000000E+00
  0.00000000E+00  0.00000000E+00  0.00000000E+00
  0.00000000E+00  0.00000000E+00  0.00000000E+00
  0.00000000E+00  0.00000000E+00  0.00000000E+00
  0.00000000E+00  0.00000000E+00  0.00000000E+00
  0.00000000E+00  0.00000000E+00  0.00000000E+00
  0.00000000E+00  0.00000000E+00  0.00000000E+00
