generated by phonopy                    
   1.00328883835111     
    48.2713541975445040    0.0000000000000000   -0.0000000000000000
    -0.0000000000000000    5.1613513067122163    0.0000000000000001
     0.0000000000000000   -2.5806756533561077    4.4698613494687871
   Co   Ru
    72    24
Direct
  0.0256301912414094  0.3333333333333286  0.1666666666666714
  0.0256301912414094  0.3333333333333286  0.6666666666666714
  0.0256301912414094  0.8333333333333286  0.1666666666666714
  0.0256301912414094  0.8333333333333286  0.6666666666666714
  0.0659303128079518  0.1666666666666714  0.3333333333333286
  0.0659303128079518  0.1666666666666714  0.8333333333333286
  0.0659303128079518  0.6666666666666714  0.3333333333333286
  0.0659303128079518  0.6666666666666714  0.8333333333333286
  0.1064523333297629  0.3333333333333286  0.1666666666666714
  0.1064523333297629  0.3333333333333286  0.6666666666666714
  0.1064523333297629  0.8333333333333286  0.1666666666666714
  0.1064523333297629  0.8333333333333286  0.6666666666666714
  0.1469740458103591  0.1666666666666714  0.3333333333333286
  0.1469740458103591  0.1666666666666714  0.8333333333333286
  0.1469740458103591  0.6666666666666714  0.3333333333333286
  0.1469740458103591  0.6666666666666714  0.8333333333333286
  0.1875109731661723  0.3333333333333286  0.1666666666666714
  0.1875109731661723  0.3333333333333286  0.6666666666666714
  0.1875109731661723  0.8333333333333286  0.1666666666666714
  0.1875109731661723  0.8333333333333286  0.6666666666666714
  0.2280445144345231  0.1666666666666714  0.3333333333333286
  0.2280445144345231  0.1666666666666714  0.8333333333333286
  0.2280445144345231  0.6666666666666714  0.3333333333333286
  0.2280445144345231  0.6666666666666714  0.8333333333333286
  0.2685582272990328  0.3333333333333286  0.1666666666666714
  0.2685582272990328  0.3333333333333286  0.6666666666666714
  0.2685582272990328  0.8333333333333286  0.1666666666666714
  0.2685582272990328  0.8333333333333286  0.6666666666666714
  0.3090691964733037  0.1666666666666714  0.3333333333333286
  0.3090691964733037  0.1666666666666714  0.8333333333333286
  0.3090691964733037  0.6666666666666714  0.3333333333333286
  0.3090691964733037  0.6666666666666714  0.8333333333333286
  0.3493587466154587  0.3333333333333286  0.1666666666666714
  0.3493587466154587  0.3333333333333286  0.6666666666666714
  0.3493587466154587  0.8333333333333286  0.1666666666666714
  0.3493587466154587  0.8333333333333286  0.6666666666666714
  0.5256301912414023  0.3333333333333286  0.1666666666666714
  0.5256301912414023  0.3333333333333286  0.6666666666666714
  0.5256301912414023  0.8333333333333286  0.1666666666666714
  0.5256301912414023  0.8333333333333286  0.6666666666666714
  0.5659303128079517  0.1666666666666714  0.3333333333333286
  0.5659303128079517  0.1666666666666714  0.8333333333333286
  0.5659303128079517  0.6666666666666714  0.3333333333333286
  0.5659303128079517  0.6666666666666714  0.8333333333333286
  0.6064523333297701  0.3333333333333286  0.1666666666666714
  0.6064523333297701  0.3333333333333286  0.6666666666666714
  0.6064523333297701  0.8333333333333286  0.1666666666666714
  0.6064523333297701  0.8333333333333286  0.6666666666666714
  0.6469740458103592  0.1666666666666714  0.3333333333333286
  0.6469740458103592  0.1666666666666714  0.8333333333333286
  0.6469740458103592  0.6666666666666714  0.3333333333333286
  0.6469740458103592  0.6666666666666714  0.8333333333333286
  0.6875109731661795  0.3333333333333286  0.1666666666666714
  0.6875109731661795  0.3333333333333286  0.6666666666666714
  0.6875109731661795  0.8333333333333286  0.1666666666666714
  0.6875109731661795  0.8333333333333286  0.6666666666666714
  0.7280445144345303  0.1666666666666714  0.3333333333333286
  0.7280445144345303  0.1666666666666714  0.8333333333333286
  0.7280445144345303  0.6666666666666714  0.3333333333333286
  0.7280445144345303  0.6666666666666714  0.8333333333333286
  0.7685582272990253  0.3333333333333286  0.1666666666666714
  0.7685582272990253  0.3333333333333286  0.6666666666666714
  0.7685582272990253  0.8333333333333286  0.1666666666666714
  0.7685582272990253  0.8333333333333286  0.6666666666666714
  0.8090691964733032  0.1666666666666714  0.3333333333333286
  0.8090691964733032  0.1666666666666714  0.8333333333333286
  0.8090691964733032  0.6666666666666714  0.3333333333333286
  0.8090691964733032  0.6666666666666714  0.8333333333333286
  0.8493587466154591  0.3333333333333286  0.1666666666666714
  0.8493587466154591  0.3333333333333286  0.6666666666666714
  0.8493587466154591  0.8333333333333286  0.1666666666666714
  0.8493587466154591  0.8333333333333286  0.6666666666666714
  0.3926654170220406  0.1666666666666714  0.3333333333333286
  0.3926654170220406  0.1666666666666714  0.8333333333333286
  0.3926654170220406  0.6666666666666714  0.3333333333333286
  0.3926654170220406  0.6666666666666714  0.8333333333333286
  0.4374899794685042  0.3333333333333286  0.1666666666666714
  0.4374899794685042  0.3333333333333286  0.6666666666666714
  0.4374899794685042  0.8333333333333286  0.1666666666666714
  0.4374899794685042  0.8333333333333286  0.6666666666666714
  0.4823160623314675  0.1666666666666714  0.3333333333333286
  0.4823160623314675  0.1666666666666714  0.8333333333333286
  0.4823160623314675  0.6666666666666714  0.3333333333333286
  0.4823160623314675  0.6666666666666714  0.8333333333333286
  0.8926654170220478  0.1666666666666714  0.3333333333333286
  0.8926654170220478  0.1666666666666714  0.8333333333333286
  0.8926654170220478  0.6666666666666714  0.3333333333333286
  0.8926654170220478  0.6666666666666714  0.8333333333333286
  0.9374899794685118  0.3333333333333286  0.1666666666666714
  0.9374899794685118  0.3333333333333286  0.6666666666666714
  0.9374899794685118  0.8333333333333286  0.1666666666666714
  0.9374899794685118  0.8333333333333286  0.6666666666666714
  0.9823160623314676  0.1666666666666714  0.3333333333333286
  0.9823160623314676  0.1666666666666714  0.8333333333333286
  0.9823160623314676  0.6666666666666714  0.3333333333333286
  0.9823160623314676  0.6666666666666714  0.8333333333333286
 
  0.00000000E+00  0.00000000E+00  0.00000000E+00
  0.00000000E+00  0.00000000E+00  0.00000000E+00
  0.00000000E+00  0.00000000E+00  0.00000000E+00
  0.00000000E+00  0.00000000E+00  0.00000000E+00
  0.00000000E+00  0.00000000E+00  0.00000000E+00
  0.00000000E+00  0.00000000E+00  0.00000000E+00
  0.00000000E+00  0.00000000E+00  0.00000000E+00
  0.00000000E+00  0.00000000E+00  0.00000000E+00
  0.00000000E+00  0.00000000E+00  0.00000000E+00
  0.00000000E+00  0.00000000E+00  0.00000000E+00
  0.00000000E+00  0.00000000E+00  0.00000000E+00
  0.00000000E+00  0.00000000E+00  0.00000000E+00
  0.00000000E+00  0.00000000E+00  0.00000000E+00
  0.00000000E+00  0.00000000E+00  0.00000000E+00
  0.00000000E+00  0.00000000E+00  0.00000000E+00
  0.00000000E+00  0.00000000E+00  0.00000000E+00
  0.00000000E+00  0.00000000E+00  0.00000000E+00
  0.00000000E+00  0.00000000E+00  0.00000000E+00
  0.00000000E+00  0.00000000E+00  0.00000000E+00
  0.00000000E+00  0.00000000E+00  0.00000000E+00
  0.00000000E+00  0.00000000E+00  0.00000000E+00
  0.00000000E+00  0.00000000E+00  0.00000000E+00
  0.00000000E+00  0.00000000E+00  0.00000000E+00
  0.00000000E+00  0.00000000E+00  0.00000000E+00
  0.00000000E+00  0.00000000E+00  0.00000000E+00
  0.00000000E+00  0.00000000E+00  0.00000000E+00
  0.00000000E+00  0.00000000E+00  0.00000000E+00
  0.00000000E+00  0.00000000E+00  0.00000000E+00
  0.00000000E+00  0.00000000E+00  0.00000000E+00
  0.00000000E+00  0.00000000E+00  0.00000000E+00
  0.00000000E+00  0.00000000E+00  0.00000000E+00
  0.00000000E+00  0.00000000E+00  0.00000000E+00
  0.00000000E+00  0.00000000E+00  0.00000000E+00
  0.00000000E+00  0.00000000E+00  0.00000000E+00
  0.00000000E+00  0.00000000E+00  0.00000000E+00
  0.00000000E+00  0.00000000E+00  0.00000000E+00
  0.00000000E+00  0.00000000E+00  0.00000000E+00
  0.00000000E+00  0.00000000E+00  0.00000000E+00
  0.00000000E+00  0.00000000E+00  0.00000000E+00
  0.00000000E+00  0.00000000E+00  0.00000000E+00
  0.00000000E+00  0.00000000E+00  0.00000000E+00
  0.00000000E+00  0.00000000E+00  0.00000000E+00
  0.00000000E+00  0.00000000E+00  0.00000000E+00
  0.00000000E+00  0.00000000E+00  0.00000000E+00
  0.00000000E+00  0.00000000E+00  0.00000000E+00
  0.00000000E+00  0.00000000E+00  0.00000000E+00
  0.00000000E+00  0.00000000E+00  0.00000000E+00
  0.00000000E+00  0.00000000E+00  0.00000000E+00
  0.00000000E+00  0.00000000E+00  0.00000000E+00
  0.00000000E+00  0.00000000E+00  0.00000000E+00
  0.00000000E+00  0.00000000E+00  0.00000000E+00
  0.00000000E+00  0.00000000E+00  0.00000000E+00
  0.00000000E+00  0.00000000E+00  0.00000000E+00
  0.00000000E+00  0.00000000E+00  0.00000000E+00
  0.00000000E+00  0.00000000E+00  0.00000000E+00
  0.00000000E+00  0.00000000E+00  0.00000000E+00
  0.00000000E+00  0.00000000E+00  0.00000000E+00
  0.00000000E+00  0.00000000E+00  0.00000000E+00
  0.00000000E+00  0.00000000E+00  0.00000000E+00
  0.00000000E+00  0.00000000E+00  0.00000000E+00
  0.00000000E+00  0.00000000E+00  0.00000000E+00
  0.00000000E+00  0.00000000E+00  0.00000000E+00
  0.00000000E+00  0.00000000E+00  0.00000000E+00
  0.00000000E+00  0.00000000E+00  0.00000000E+00
  0.00000000E+00  0.00000000E+00  0.00000000E+00
  0.00000000E+00  0.00000000E+00  0.00000000E+00
  0.00000000E+00  0.00000000E+00  0.00000000E+00
  0.00000000E+00  0.00000000E+00  0.00000000E+00
  0.00000000E+00  0.00000000E+00  0.00000000E+00
  0.00000000E+00  0.00000000E+00  0.00000000E+00
  0.00000000E+00  0.00000000E+00  0.00000000E+00
  0.00000000E+00  0.00000000E+00  0.00000000E+00
  0.00000000E+00  0.00000000E+00  0.00000000E+00
  0.00000000E+00  0.00000000E+00  0.00000000E+00
  0.00000000E+00  0.00000000E+00  0.00000000E+00
  0.00000000E+00  0.00000000E+00  0.00000000E+00
  0.00000000E+00  0.00000000E+00  0.00000000E+00
  0.00000000E+00  0.00000000E+00  0.00000000E+00
  0.00000000E+00  0.00000000E+00  0.00000000E+00
  0.00000000E+00  0.00000000E+00  0.00000000E+00
  0.00000000E+00  0.00000000E+00  0.00000000E+00
  0.00000000E+00  0.00000000E+00  0.00000000E+00
  0.00000000E+00  0.00000000E+00  0.00000000E+00
  0.00000000E+00  0.00000000E+00  0.00000000E+00
  0.00000000E+00  0.00000000E+00  0.00000000E+00
  0.00000000E+00  0.00000000E+00  0.00000000E+00
  0.00000000E+00  0.00000000E+00  0.00000000E+00
  0.00000000E+00  0.00000000E+00  0.00000000E+00
  0.00000000E+00  0.00000000E+00  0.00000000E+00
  0.00000000E+00  0.00000000E+00  0.00000000E+00
  0.00000000E+00  0.00000000E+00  0.00000000E+00
  0.00000000E+00  0.00000000E+00  0.00000000E+00
  0.00000000E+00  0.00000000E+00  0.00000000E+00
  0.00000000E+00  0.00000000E+00  0.00000000E+00
  0.00000000E+00  0.00000000E+00  0.00000000E+00
  0.00000000E+00  0.00000000E+00  0.00000000E+00
