generated by phonopy                    
   1.01332239234878     
    48.2851296147564639   -0.0000000000000000    0.0000000000000000
     0.0000000000000000    5.1606150050807740   -0.0000000000000000
     0.0000000000000000   -2.5803075025403865    4.4692236935510969
   Co   Ru
    72    24
Direct
  0.0253233153735255  0.3333333333333286  0.1666666666666714
  0.0253233153735255  0.3333333333333286  0.6666666666666714
  0.0253233153735255  0.8333333333333286  0.1666666666666714
  0.0253233153735255  0.8333333333333286  0.6666666666666714
  0.0657121756410953  0.1666666666666714  0.3333333333333286
  0.0657121756410953  0.1666666666666714  0.8333333333333286
  0.0657121756410953  0.6666666666666714  0.3333333333333286
  0.0657121756410953  0.6666666666666714  0.8333333333333286
  0.1063274436032423  0.3333333333333286  0.1666666666666714
  0.1063274436032423  0.3333333333333286  0.6666666666666714
  0.1063274436032423  0.8333333333333286  0.1666666666666714
  0.1063274436032423  0.8333333333333286  0.6666666666666714
  0.1469052083818480  0.1666666666666714  0.3333333333333286
  0.1469052083818480  0.1666666666666714  0.8333333333333286
  0.1469052083818480  0.6666666666666714  0.3333333333333286
  0.1469052083818480  0.6666666666666714  0.8333333333333286
  0.1875007407575130  0.3333333333333286  0.1666666666666714
  0.1875007407575130  0.3333333333333286  0.6666666666666714
  0.1875007407575130  0.8333333333333286  0.1666666666666714
  0.1875007407575130  0.8333333333333286  0.6666666666666714
  0.2280959824657189  0.1666666666666714  0.3333333333333286
  0.2280959824657189  0.1666666666666714  0.8333333333333286
  0.2280959824657189  0.6666666666666714  0.3333333333333286
  0.2280959824657189  0.6666666666666714  0.8333333333333286
  0.2686734851128047  0.3333333333333286  0.1666666666666714
  0.2686734851128047  0.3333333333333286  0.6666666666666714
  0.2686734851128047  0.8333333333333286  0.1666666666666714
  0.2686734851128047  0.8333333333333286  0.6666666666666714
  0.3092879411528782  0.1666666666666714  0.3333333333333286
  0.3092879411528782  0.1666666666666714  0.8333333333333286
  0.3092879411528782  0.6666666666666714  0.3333333333333286
  0.3092879411528782  0.6666666666666714  0.8333333333333286
  0.3496756222344033  0.3333333333333286  0.1666666666666714
  0.3496756222344033  0.3333333333333286  0.6666666666666714
  0.3496756222344033  0.8333333333333286  0.1666666666666714
  0.3496756222344033  0.8333333333333286  0.6666666666666714
  0.5253233153735182  0.3333333333333286  0.1666666666666714
  0.5253233153735182  0.3333333333333286  0.6666666666666714
  0.5253233153735182  0.8333333333333286  0.1666666666666714
  0.5253233153735182  0.8333333333333286  0.6666666666666714
  0.5657121756410954  0.1666666666666714  0.3333333333333286
  0.5657121756410954  0.1666666666666714  0.8333333333333286
  0.5657121756410954  0.6666666666666714  0.3333333333333286
  0.5657121756410954  0.6666666666666714  0.8333333333333286
  0.6063274436032494  0.3333333333333286  0.1666666666666714
  0.6063274436032494  0.3333333333333286  0.6666666666666714
  0.6063274436032494  0.8333333333333286  0.1666666666666714
  0.6063274436032494  0.8333333333333286  0.6666666666666714
  0.6469052083818471  0.1666666666666714  0.3333333333333286
  0.6469052083818471  0.1666666666666714  0.8333333333333286
  0.6469052083818471  0.6666666666666714  0.3333333333333286
  0.6469052083818471  0.6666666666666714  0.8333333333333286
  0.6875007407575204  0.3333333333333286  0.1666666666666714
  0.6875007407575204  0.3333333333333286  0.6666666666666714
  0.6875007407575204  0.8333333333333286  0.1666666666666714
  0.6875007407575204  0.8333333333333286  0.6666666666666714
  0.7280959824657256  0.1666666666666714  0.3333333333333286
  0.7280959824657256  0.1666666666666714  0.8333333333333286
  0.7280959824657256  0.6666666666666714  0.3333333333333286
  0.7280959824657256  0.6666666666666714  0.8333333333333286
  0.7686734851127991  0.3333333333333286  0.1666666666666714
  0.7686734851127991  0.3333333333333286  0.6666666666666714
  0.7686734851127991  0.8333333333333286  0.1666666666666714
  0.7686734851127991  0.8333333333333286  0.6666666666666714
  0.8092879411528784  0.1666666666666714  0.3333333333333286
  0.8092879411528784  0.1666666666666714  0.8333333333333286
  0.8092879411528784  0.6666666666666714  0.3333333333333286
  0.8092879411528784  0.6666666666666714  0.8333333333333286
  0.8496756222344025  0.3333333333333286  0.1666666666666714
  0.8496756222344025  0.3333333333333286  0.6666666666666714
  0.8496756222344025  0.8333333333333286  0.1666666666666714
  0.8496756222344025  0.8333333333333286  0.6666666666666714
  0.3930029509267110  0.1666666666666714  0.3333333333333286
  0.3930029509267110  0.1666666666666714  0.8333333333333286
  0.3930029509267110  0.6666666666666714  0.3333333333333286
  0.3930029509267110  0.6666666666666714  0.8333333333333286
  0.4374993664483005  0.3333333333333286  0.1666666666666714
  0.4374993664483005  0.3333333333333286  0.6666666666666714
  0.4374993664483005  0.8333333333333286  0.1666666666666714
  0.4374993664483005  0.8333333333333286  0.6666666666666714
  0.4819957679019306  0.1666666666666714  0.3333333333333286
  0.4819957679019306  0.1666666666666714  0.8333333333333286
  0.4819957679019306  0.6666666666666714  0.3333333333333286
  0.4819957679019306  0.6666666666666714  0.8333333333333286
  0.8930029509267173  0.1666666666666714  0.3333333333333286
  0.8930029509267173  0.1666666666666714  0.8333333333333286
  0.8930029509267173  0.6666666666666714  0.3333333333333286
  0.8930029509267173  0.6666666666666714  0.8333333333333286
  0.9374993664483072  0.3333333333333286  0.1666666666666714
  0.9374993664483072  0.3333333333333286  0.6666666666666714
  0.9374993664483072  0.8333333333333286  0.1666666666666714
  0.9374993664483072  0.8333333333333286  0.6666666666666714
  0.9819957679019314  0.1666666666666714  0.3333333333333286
  0.9819957679019314  0.1666666666666714  0.8333333333333286
  0.9819957679019314  0.6666666666666714  0.3333333333333286
  0.9819957679019314  0.6666666666666714  0.8333333333333286
 
  0.00000000E+00  0.00000000E+00  0.00000000E+00
  0.00000000E+00  0.00000000E+00  0.00000000E+00
  0.00000000E+00  0.00000000E+00  0.00000000E+00
  0.00000000E+00  0.00000000E+00  0.00000000E+00
  0.00000000E+00  0.00000000E+00  0.00000000E+00
  0.00000000E+00  0.00000000E+00  0.00000000E+00
  0.00000000E+00  0.00000000E+00  0.00000000E+00
  0.00000000E+00  0.00000000E+00  0.00000000E+00
  0.00000000E+00  0.00000000E+00  0.00000000E+00
  0.00000000E+00  0.00000000E+00  0.00000000E+00
  0.00000000E+00  0.00000000E+00  0.00000000E+00
  0.00000000E+00  0.00000000E+00  0.00000000E+00
  0.00000000E+00  0.00000000E+00  0.00000000E+00
  0.00000000E+00  0.00000000E+00  0.00000000E+00
  0.00000000E+00  0.00000000E+00  0.00000000E+00
  0.00000000E+00  0.00000000E+00  0.00000000E+00
  0.00000000E+00  0.00000000E+00  0.00000000E+00
  0.00000000E+00  0.00000000E+00  0.00000000E+00
  0.00000000E+00  0.00000000E+00  0.00000000E+00
  0.00000000E+00  0.00000000E+00  0.00000000E+00
  0.00000000E+00  0.00000000E+00  0.00000000E+00
  0.00000000E+00  0.00000000E+00  0.00000000E+00
  0.00000000E+00  0.00000000E+00  0.00000000E+00
  0.00000000E+00  0.00000000E+00  0.00000000E+00
  0.00000000E+00  0.00000000E+00  0.00000000E+00
  0.00000000E+00  0.00000000E+00  0.00000000E+00
  0.00000000E+00  0.00000000E+00  0.00000000E+00
  0.00000000E+00  0.00000000E+00  0.00000000E+00
  0.00000000E+00  0.00000000E+00  0.00000000E+00
  0.00000000E+00  0.00000000E+00  0.00000000E+00
  0.00000000E+00  0.00000000E+00  0.00000000E+00
  0.00000000E+00  0.00000000E+00  0.00000000E+00
  0.00000000E+00  0.00000000E+00  0.00000000E+00
  0.00000000E+00  0.00000000E+00  0.00000000E+00
  0.00000000E+00  0.00000000E+00  0.00000000E+00
  0.00000000E+00  0.00000000E+00  0.00000000E+00
  0.00000000E+00  0.00000000E+00  0.00000000E+00
  0.00000000E+00  0.00000000E+00  0.00000000E+00
  0.00000000E+00  0.00000000E+00  0.00000000E+00
  0.00000000E+00  0.00000000E+00  0.00000000E+00
  0.00000000E+00  0.00000000E+00  0.00000000E+00
  0.00000000E+00  0.00000000E+00  0.00000000E+00
  0.00000000E+00  0.00000000E+00  0.00000000E+00
  0.00000000E+00  0.00000000E+00  0.00000000E+00
  0.00000000E+00  0.00000000E+00  0.00000000E+00
  0.00000000E+00  0.00000000E+00  0.00000000E+00
  0.00000000E+00  0.00000000E+00  0.00000000E+00
  0.00000000E+00  0.00000000E+00  0.00000000E+00
  0.00000000E+00  0.00000000E+00  0.00000000E+00
  0.00000000E+00  0.00000000E+00  0.00000000E+00
  0.00000000E+00  0.00000000E+00  0.00000000E+00
  0.00000000E+00  0.00000000E+00  0.00000000E+00
  0.00000000E+00  0.00000000E+00  0.00000000E+00
  0.00000000E+00  0.00000000E+00  0.00000000E+00
  0.00000000E+00  0.00000000E+00  0.00000000E+00
  0.00000000E+00  0.00000000E+00  0.00000000E+00
  0.00000000E+00  0.00000000E+00  0.00000000E+00
  0.00000000E+00  0.00000000E+00  0.00000000E+00
  0.00000000E+00  0.00000000E+00  0.00000000E+00
  0.00000000E+00  0.00000000E+00  0.00000000E+00
  0.00000000E+00  0.00000000E+00  0.00000000E+00
  0.00000000E+00  0.00000000E+00  0.00000000E+00
  0.00000000E+00  0.00000000E+00  0.00000000E+00
  0.00000000E+00  0.00000000E+00  0.00000000E+00
  0.00000000E+00  0.00000000E+00  0.00000000E+00
  0.00000000E+00  0.00000000E+00  0.00000000E+00
  0.00000000E+00  0.00000000E+00  0.00000000E+00
  0.00000000E+00  0.00000000E+00  0.00000000E+00
  0.00000000E+00  0.00000000E+00  0.00000000E+00
  0.00000000E+00  0.00000000E+00  0.00000000E+00
  0.00000000E+00  0.00000000E+00  0.00000000E+00
  0.00000000E+00  0.00000000E+00  0.00000000E+00
  0.00000000E+00  0.00000000E+00  0.00000000E+00
  0.00000000E+00  0.00000000E+00  0.00000000E+00
  0.00000000E+00  0.00000000E+00  0.00000000E+00
  0.00000000E+00  0.00000000E+00  0.00000000E+00
  0.00000000E+00  0.00000000E+00  0.00000000E+00
  0.00000000E+00  0.00000000E+00  0.00000000E+00
  0.00000000E+00  0.00000000E+00  0.00000000E+00
  0.00000000E+00  0.00000000E+00  0.00000000E+00
  0.00000000E+00  0.00000000E+00  0.00000000E+00
  0.00000000E+00  0.00000000E+00  0.00000000E+00
  0.00000000E+00  0.00000000E+00  0.00000000E+00
  0.00000000E+00  0.00000000E+00  0.00000000E+00
  0.00000000E+00  0.00000000E+00  0.00000000E+00
  0.00000000E+00  0.00000000E+00  0.00000000E+00
  0.00000000E+00  0.00000000E+00  0.00000000E+00
  0.00000000E+00  0.00000000E+00  0.00000000E+00
  0.00000000E+00  0.00000000E+00  0.00000000E+00
  0.00000000E+00  0.00000000E+00  0.00000000E+00
  0.00000000E+00  0.00000000E+00  0.00000000E+00
  0.00000000E+00  0.00000000E+00  0.00000000E+00
  0.00000000E+00  0.00000000E+00  0.00000000E+00
  0.00000000E+00  0.00000000E+00  0.00000000E+00
  0.00000000E+00  0.00000000E+00  0.00000000E+00
  0.00000000E+00  0.00000000E+00  0.00000000E+00
