generated by phonopy                    
    1.006622709560113     
    48.3733469466620534    0.0000000000000000    0.0000000000000000
    -0.0000000000000000    5.0638351638663117    0.0000000000000000
     0.0000000000000000   -2.5319175819331559    4.3854098924851721
   Co   Ru
    88     8
Direct
  0.0226868881055181  0.3333333333333286  0.1666666666666714
  0.0226868881055181  0.3333333333333286  0.6666666666666714
  0.0226868881055181  0.8333333333333286  0.1666666666666714
  0.0226868881055181  0.8333333333333286  0.6666666666666714
  0.0638547083108486  0.1666666666666714  0.3333333333333286
  0.0638547083108486  0.1666666666666714  0.8333333333333286
  0.0638547083108486  0.6666666666666714  0.3333333333333286
  0.0638547083108486  0.6666666666666714  0.8333333333333286
  0.1051941380922332  0.3333333333333286  0.1666666666666714
  0.1051941380922332  0.3333333333333286  0.6666666666666714
  0.1051941380922332  0.8333333333333286  0.1666666666666714
  0.1051941380922332  0.8333333333333286  0.6666666666666714
  0.1464680953995695  0.1666666666666714  0.3333333333333286
  0.1464680953995695  0.1666666666666714  0.8333333333333286
  0.1464680953995695  0.6666666666666714  0.3333333333333286
  0.1464680953995695  0.6666666666666714  0.8333333333333286
  0.1878634007416207  0.3333333333333286  0.1666666666666714
  0.1878634007416207  0.3333333333333286  0.6666666666666714
  0.1878634007416207  0.8333333333333286  0.1666666666666714
  0.1878634007416207  0.8333333333333286  0.6666666666666714
  0.2291666666666643  0.1666666666666714  0.3333333333333286
  0.2291666666666643  0.1666666666666714  0.8333333333333286
  0.2291666666666643  0.6666666666666714  0.3333333333333286
  0.2291666666666643  0.6666666666666714  0.8333333333333286
  0.2704699325917150  0.3333333333333286  0.1666666666666714
  0.2704699325917150  0.3333333333333286  0.6666666666666714
  0.2704699325917150  0.8333333333333286  0.1666666666666714
  0.2704699325917150  0.8333333333333286  0.6666666666666714
  0.3118652379337662  0.1666666666666714  0.3333333333333286
  0.3118652379337662  0.1666666666666714  0.8333333333333286
  0.3118652379337662  0.6666666666666714  0.3333333333333286
  0.3118652379337662  0.6666666666666714  0.8333333333333286
  0.3531391952410883  0.3333333333333286  0.1666666666666714
  0.3531391952410883  0.3333333333333286  0.6666666666666714
  0.3531391952410883  0.8333333333333286  0.1666666666666714
  0.3531391952410883  0.8333333333333286  0.6666666666666714
  0.3944786250224871  0.1666666666666714  0.3333333333333286
  0.3944786250224871  0.1666666666666714  0.8333333333333286
  0.3944786250224871  0.6666666666666714  0.3333333333333286
  0.3944786250224871  0.6666666666666714  0.8333333333333286
  0.4356464452278175  0.3333333333333286  0.1666666666666714
  0.4356464452278175  0.3333333333333286  0.6666666666666714
  0.4356464452278175  0.8333333333333286  0.1666666666666714
  0.4356464452278175  0.8333333333333286  0.6666666666666714
  0.5226868881055182  0.3333333333333286  0.1666666666666714
  0.5226868881055182  0.3333333333333286  0.6666666666666714
  0.5226868881055182  0.8333333333333286  0.1666666666666714
  0.5226868881055182  0.8333333333333286  0.6666666666666714
  0.5638547083108486  0.1666666666666714  0.3333333333333286
  0.5638547083108486  0.1666666666666714  0.8333333333333286
  0.5638547083108486  0.6666666666666714  0.3333333333333286
  0.5638547083108486  0.6666666666666714  0.8333333333333286
  0.6051941380922403  0.3333333333333286  0.1666666666666714
  0.6051941380922403  0.3333333333333286  0.6666666666666714
  0.6051941380922403  0.8333333333333286  0.1666666666666714
  0.6051941380922403  0.8333333333333286  0.6666666666666714
  0.6464680953995696  0.1666666666666714  0.3333333333333286
  0.6464680953995696  0.1666666666666714  0.8333333333333286
  0.6464680953995696  0.6666666666666714  0.3333333333333286
  0.6464680953995696  0.6666666666666714  0.8333333333333286
  0.6878634007416278  0.3333333333333286  0.1666666666666714
  0.6878634007416278  0.3333333333333286  0.6666666666666714
  0.6878634007416278  0.8333333333333286  0.1666666666666714
  0.6878634007416278  0.8333333333333286  0.6666666666666714
  0.7291666666666643  0.1666666666666714  0.3333333333333286
  0.7291666666666643  0.1666666666666714  0.8333333333333286
  0.7291666666666643  0.6666666666666714  0.3333333333333286
  0.7291666666666643  0.6666666666666714  0.8333333333333286
  0.7704699325917079  0.3333333333333286  0.1666666666666714
  0.7704699325917079  0.3333333333333286  0.6666666666666714
  0.7704699325917079  0.8333333333333286  0.1666666666666714
  0.7704699325917079  0.8333333333333286  0.6666666666666714
  0.8118652379337661  0.1666666666666714  0.3333333333333286
  0.8118652379337661  0.1666666666666714  0.8333333333333286
  0.8118652379337661  0.6666666666666714  0.3333333333333286
  0.8118652379337661  0.6666666666666714  0.8333333333333286
  0.8531391952410883  0.3333333333333286  0.1666666666666714
  0.8531391952410883  0.3333333333333286  0.6666666666666714
  0.8531391952410883  0.8333333333333286  0.1666666666666714
  0.8531391952410883  0.8333333333333286  0.6666666666666714
  0.8944786250224871  0.1666666666666714  0.3333333333333286
  0.8944786250224871  0.1666666666666714  0.8333333333333286
  0.8944786250224871  0.6666666666666714  0.3333333333333286
  0.8944786250224871  0.6666666666666714  0.8333333333333286
  0.9356464452278175  0.3333333333333286  0.1666666666666714
  0.9356464452278175  0.3333333333333286  0.6666666666666714
  0.9356464452278175  0.8333333333333286  0.1666666666666714
  0.9356464452278175  0.8333333333333286  0.6666666666666714
  0.4791666666666643  0.1666666666666714  0.3333333333333286
  0.4791666666666643  0.1666666666666714  0.8333333333333286
  0.4791666666666643  0.6666666666666714  0.3333333333333286
  0.4791666666666643  0.6666666666666714  0.8333333333333286
  0.9791666666666643  0.1666666666666714  0.3333333333333286
  0.9791666666666643  0.1666666666666714  0.8333333333333286
  0.9791666666666643  0.6666666666666714  0.3333333333333286
  0.9791666666666643  0.6666666666666714  0.8333333333333286
 
  0.00000000E+00  0.00000000E+00  0.00000000E+00
  0.00000000E+00  0.00000000E+00  0.00000000E+00
  0.00000000E+00  0.00000000E+00  0.00000000E+00
  0.00000000E+00  0.00000000E+00  0.00000000E+00
  0.00000000E+00  0.00000000E+00  0.00000000E+00
  0.00000000E+00  0.00000000E+00  0.00000000E+00
  0.00000000E+00  0.00000000E+00  0.00000000E+00
  0.00000000E+00  0.00000000E+00  0.00000000E+00
  0.00000000E+00  0.00000000E+00  0.00000000E+00
  0.00000000E+00  0.00000000E+00  0.00000000E+00
  0.00000000E+00  0.00000000E+00  0.00000000E+00
  0.00000000E+00  0.00000000E+00  0.00000000E+00
  0.00000000E+00  0.00000000E+00  0.00000000E+00
  0.00000000E+00  0.00000000E+00  0.00000000E+00
  0.00000000E+00  0.00000000E+00  0.00000000E+00
  0.00000000E+00  0.00000000E+00  0.00000000E+00
  0.00000000E+00  0.00000000E+00  0.00000000E+00
  0.00000000E+00  0.00000000E+00  0.00000000E+00
  0.00000000E+00  0.00000000E+00  0.00000000E+00
  0.00000000E+00  0.00000000E+00  0.00000000E+00
  0.00000000E+00  0.00000000E+00  0.00000000E+00
  0.00000000E+00  0.00000000E+00  0.00000000E+00
  0.00000000E+00  0.00000000E+00  0.00000000E+00
  0.00000000E+00  0.00000000E+00  0.00000000E+00
  0.00000000E+00  0.00000000E+00  0.00000000E+00
  0.00000000E+00  0.00000000E+00  0.00000000E+00
  0.00000000E+00  0.00000000E+00  0.00000000E+00
  0.00000000E+00  0.00000000E+00  0.00000000E+00
  0.00000000E+00  0.00000000E+00  0.00000000E+00
  0.00000000E+00  0.00000000E+00  0.00000000E+00
  0.00000000E+00  0.00000000E+00  0.00000000E+00
  0.00000000E+00  0.00000000E+00  0.00000000E+00
  0.00000000E+00  0.00000000E+00  0.00000000E+00
  0.00000000E+00  0.00000000E+00  0.00000000E+00
  0.00000000E+00  0.00000000E+00  0.00000000E+00
  0.00000000E+00  0.00000000E+00  0.00000000E+00
  0.00000000E+00  0.00000000E+00  0.00000000E+00
  0.00000000E+00  0.00000000E+00  0.00000000E+00
  0.00000000E+00  0.00000000E+00  0.00000000E+00
  0.00000000E+00  0.00000000E+00  0.00000000E+00
  0.00000000E+00  0.00000000E+00  0.00000000E+00
  0.00000000E+00  0.00000000E+00  0.00000000E+00
  0.00000000E+00  0.00000000E+00  0.00000000E+00
  0.00000000E+00  0.00000000E+00  0.00000000E+00
  0.00000000E+00  0.00000000E+00  0.00000000E+00
  0.00000000E+00  0.00000000E+00  0.00000000E+00
  0.00000000E+00  0.00000000E+00  0.00000000E+00
  0.00000000E+00  0.00000000E+00  0.00000000E+00
  0.00000000E+00  0.00000000E+00  0.00000000E+00
  0.00000000E+00  0.00000000E+00  0.00000000E+00
  0.00000000E+00  0.00000000E+00  0.00000000E+00
  0.00000000E+00  0.00000000E+00  0.00000000E+00
  0.00000000E+00  0.00000000E+00  0.00000000E+00
  0.00000000E+00  0.00000000E+00  0.00000000E+00
  0.00000000E+00  0.00000000E+00  0.00000000E+00
  0.00000000E+00  0.00000000E+00  0.00000000E+00
  0.00000000E+00  0.00000000E+00  0.00000000E+00
  0.00000000E+00  0.00000000E+00  0.00000000E+00
  0.00000000E+00  0.00000000E+00  0.00000000E+00
  0.00000000E+00  0.00000000E+00  0.00000000E+00
  0.00000000E+00  0.00000000E+00  0.00000000E+00
  0.00000000E+00  0.00000000E+00  0.00000000E+00
  0.00000000E+00  0.00000000E+00  0.00000000E+00
  0.00000000E+00  0.00000000E+00  0.00000000E+00
  0.00000000E+00  0.00000000E+00  0.00000000E+00
  0.00000000E+00  0.00000000E+00  0.00000000E+00
  0.00000000E+00  0.00000000E+00  0.00000000E+00
  0.00000000E+00  0.00000000E+00  0.00000000E+00
  0.00000000E+00  0.00000000E+00  0.00000000E+00
  0.00000000E+00  0.00000000E+00  0.00000000E+00
  0.00000000E+00  0.00000000E+00  0.00000000E+00
  0.00000000E+00  0.00000000E+00  0.00000000E+00
  0.00000000E+00  0.00000000E+00  0.00000000E+00
  0.00000000E+00  0.00000000E+00  0.00000000E+00
  0.00000000E+00  0.00000000E+00  0.00000000E+00
  0.00000000E+00  0.00000000E+00  0.00000000E+00
  0.00000000E+00  0.00000000E+00  0.00000000E+00
  0.00000000E+00  0.00000000E+00  0.00000000E+00
  0.00000000E+00  0.00000000E+00  0.00000000E+00
  0.00000000E+00  0.00000000E+00  0.00000000E+00
  0.00000000E+00  0.00000000E+00  0.00000000E+00
  0.00000000E+00  0.00000000E+00  0.00000000E+00
  0.00000000E+00  0.00000000E+00  0.00000000E+00
  0.00000000E+00  0.00000000E+00  0.00000000E+00
  0.00000000E+00  0.00000000E+00  0.00000000E+00
  0.00000000E+00  0.00000000E+00  0.00000000E+00
  0.00000000E+00  0.00000000E+00  0.00000000E+00
  0.00000000E+00  0.00000000E+00  0.00000000E+00
  0.00000000E+00  0.00000000E+00  0.00000000E+00
  0.00000000E+00  0.00000000E+00  0.00000000E+00
  0.00000000E+00  0.00000000E+00  0.00000000E+00
  0.00000000E+00  0.00000000E+00  0.00000000E+00
  0.00000000E+00  0.00000000E+00  0.00000000E+00
  0.00000000E+00  0.00000000E+00  0.00000000E+00
  0.00000000E+00  0.00000000E+00  0.00000000E+00
  0.00000000E+00  0.00000000E+00  0.00000000E+00
