generated by phonopy                    
   0.9966554934125965     
    48.3705847348640887    0.0000000000000000    0.0000000000000000
     0.0000000000000000    5.0639797474559751    0.0000000000000000
     0.0000000000000000   -2.5319898737279876    4.3855351055467899
   Co   Ru
    88     8
Direct
  0.0227912557773312  0.3333333333333286  0.1666666666666714
  0.0227912557773312  0.3333333333333286  0.6666666666666714
  0.0227912557773312  0.8333333333333286  0.1666666666666714
  0.0227912557773312  0.8333333333333286  0.6666666666666714
  0.0638741612954265  0.1666666666666714  0.3333333333333286
  0.0638741612954265  0.1666666666666714  0.8333333333333286
  0.0638741612954265  0.6666666666666714  0.3333333333333286
  0.0638741612954265  0.6666666666666714  0.8333333333333286
  0.1052044750985531  0.3333333333333286  0.1666666666666714
  0.1052044750985531  0.3333333333333286  0.6666666666666714
  0.1052044750985531  0.8333333333333286  0.1666666666666714
  0.1052044750985531  0.8333333333333286  0.6666666666666714
  0.1464697092977925  0.1666666666666714  0.3333333333333286
  0.1464697092977925  0.1666666666666714  0.8333333333333286
  0.1464697092977925  0.6666666666666714  0.3333333333333286
  0.1464697092977925  0.6666666666666714  0.8333333333333286
  0.1878706704491873  0.3333333333333286  0.1666666666666714
  0.1878706704491873  0.3333333333333286  0.6666666666666714
  0.1878706704491873  0.8333333333333286  0.1666666666666714
  0.1878706704491873  0.8333333333333286  0.6666666666666714
  0.2291666666666643  0.1666666666666714  0.3333333333333286
  0.2291666666666643  0.1666666666666714  0.8333333333333286
  0.2291666666666643  0.6666666666666714  0.3333333333333286
  0.2291666666666643  0.6666666666666714  0.8333333333333286
  0.2704626628841484  0.3333333333333286  0.1666666666666714
  0.2704626628841484  0.3333333333333286  0.6666666666666714
  0.2704626628841484  0.8333333333333286  0.1666666666666714
  0.2704626628841484  0.8333333333333286  0.6666666666666714
  0.3118636240355431  0.1666666666666714  0.3333333333333286
  0.3118636240355431  0.1666666666666714  0.8333333333333286
  0.3118636240355431  0.6666666666666714  0.3333333333333286
  0.3118636240355431  0.6666666666666714  0.8333333333333286
  0.3531288582347755  0.3333333333333286  0.1666666666666714
  0.3531288582347755  0.3333333333333286  0.6666666666666714
  0.3531288582347755  0.8333333333333286  0.1666666666666714
  0.3531288582347755  0.8333333333333286  0.6666666666666714
  0.3944591720379093  0.1666666666666714  0.3333333333333286
  0.3944591720379093  0.1666666666666714  0.8333333333333286
  0.3944591720379093  0.6666666666666714  0.3333333333333286
  0.3944591720379093  0.6666666666666714  0.8333333333333286
  0.4355420775560045  0.3333333333333286  0.1666666666666714
  0.4355420775560045  0.3333333333333286  0.6666666666666714
  0.4355420775560045  0.8333333333333286  0.1666666666666714
  0.4355420775560045  0.8333333333333286  0.6666666666666714
  0.5227912557773312  0.3333333333333286  0.1666666666666714
  0.5227912557773312  0.3333333333333286  0.6666666666666714
  0.5227912557773312  0.8333333333333286  0.1666666666666714
  0.5227912557773312  0.8333333333333286  0.6666666666666714
  0.5638741612954264  0.1666666666666714  0.3333333333333286
  0.5638741612954264  0.1666666666666714  0.8333333333333286
  0.5638741612954264  0.6666666666666714  0.3333333333333286
  0.5638741612954264  0.6666666666666714  0.8333333333333286
  0.6052044750985530  0.3333333333333286  0.1666666666666714
  0.6052044750985530  0.3333333333333286  0.6666666666666714
  0.6052044750985530  0.8333333333333286  0.1666666666666714
  0.6052044750985530  0.8333333333333286  0.6666666666666714
  0.6464697092977926  0.1666666666666714  0.3333333333333286
  0.6464697092977926  0.1666666666666714  0.8333333333333286
  0.6464697092977926  0.6666666666666714  0.3333333333333286
  0.6464697092977926  0.6666666666666714  0.8333333333333286
  0.6878706704491945  0.3333333333333286  0.1666666666666714
  0.6878706704491945  0.3333333333333286  0.6666666666666714
  0.6878706704491945  0.8333333333333286  0.1666666666666714
  0.6878706704491945  0.8333333333333286  0.6666666666666714
  0.7291666666666643  0.1666666666666714  0.3333333333333286
  0.7291666666666643  0.1666666666666714  0.8333333333333286
  0.7291666666666643  0.6666666666666714  0.3333333333333286
  0.7291666666666643  0.6666666666666714  0.8333333333333286
  0.7704626628841412  0.3333333333333286  0.1666666666666714
  0.7704626628841412  0.3333333333333286  0.6666666666666714
  0.7704626628841412  0.8333333333333286  0.1666666666666714
  0.7704626628841412  0.8333333333333286  0.6666666666666714
  0.8118636240355431  0.1666666666666714  0.3333333333333286
  0.8118636240355431  0.1666666666666714  0.8333333333333286
  0.8118636240355431  0.6666666666666714  0.3333333333333286
  0.8118636240355431  0.6666666666666714  0.8333333333333286
  0.8531288582347756  0.3333333333333286  0.1666666666666714
  0.8531288582347756  0.3333333333333286  0.6666666666666714
  0.8531288582347756  0.8333333333333286  0.1666666666666714
  0.8531288582347756  0.8333333333333286  0.6666666666666714
  0.8944591720379093  0.1666666666666714  0.3333333333333286
  0.8944591720379093  0.1666666666666714  0.8333333333333286
  0.8944591720379093  0.6666666666666714  0.3333333333333286
  0.8944591720379093  0.6666666666666714  0.8333333333333286
  0.9355420775560045  0.3333333333333286  0.1666666666666714
  0.9355420775560045  0.3333333333333286  0.6666666666666714
  0.9355420775560045  0.8333333333333286  0.1666666666666714
  0.9355420775560045  0.8333333333333286  0.6666666666666714
  0.4791666666666643  0.1666666666666714  0.3333333333333286
  0.4791666666666643  0.1666666666666714  0.8333333333333286
  0.4791666666666643  0.6666666666666714  0.3333333333333286
  0.4791666666666643  0.6666666666666714  0.8333333333333286
  0.9791666666666643  0.1666666666666714  0.3333333333333286
  0.9791666666666643  0.1666666666666714  0.8333333333333286
  0.9791666666666643  0.6666666666666714  0.3333333333333286
  0.9791666666666643  0.6666666666666714  0.8333333333333286
 
  0.00000000E+00  0.00000000E+00  0.00000000E+00
  0.00000000E+00  0.00000000E+00  0.00000000E+00
  0.00000000E+00  0.00000000E+00  0.00000000E+00
  0.00000000E+00  0.00000000E+00  0.00000000E+00
  0.00000000E+00  0.00000000E+00  0.00000000E+00
  0.00000000E+00  0.00000000E+00  0.00000000E+00
  0.00000000E+00  0.00000000E+00  0.00000000E+00
  0.00000000E+00  0.00000000E+00  0.00000000E+00
  0.00000000E+00  0.00000000E+00  0.00000000E+00
  0.00000000E+00  0.00000000E+00  0.00000000E+00
  0.00000000E+00  0.00000000E+00  0.00000000E+00
  0.00000000E+00  0.00000000E+00  0.00000000E+00
  0.00000000E+00  0.00000000E+00  0.00000000E+00
  0.00000000E+00  0.00000000E+00  0.00000000E+00
  0.00000000E+00  0.00000000E+00  0.00000000E+00
  0.00000000E+00  0.00000000E+00  0.00000000E+00
  0.00000000E+00  0.00000000E+00  0.00000000E+00
  0.00000000E+00  0.00000000E+00  0.00000000E+00
  0.00000000E+00  0.00000000E+00  0.00000000E+00
  0.00000000E+00  0.00000000E+00  0.00000000E+00
  0.00000000E+00  0.00000000E+00  0.00000000E+00
  0.00000000E+00  0.00000000E+00  0.00000000E+00
  0.00000000E+00  0.00000000E+00  0.00000000E+00
  0.00000000E+00  0.00000000E+00  0.00000000E+00
  0.00000000E+00  0.00000000E+00  0.00000000E+00
  0.00000000E+00  0.00000000E+00  0.00000000E+00
  0.00000000E+00  0.00000000E+00  0.00000000E+00
  0.00000000E+00  0.00000000E+00  0.00000000E+00
  0.00000000E+00  0.00000000E+00  0.00000000E+00
  0.00000000E+00  0.00000000E+00  0.00000000E+00
  0.00000000E+00  0.00000000E+00  0.00000000E+00
  0.00000000E+00  0.00000000E+00  0.00000000E+00
  0.00000000E+00  0.00000000E+00  0.00000000E+00
  0.00000000E+00  0.00000000E+00  0.00000000E+00
  0.00000000E+00  0.00000000E+00  0.00000000E+00
  0.00000000E+00  0.00000000E+00  0.00000000E+00
  0.00000000E+00  0.00000000E+00  0.00000000E+00
  0.00000000E+00  0.00000000E+00  0.00000000E+00
  0.00000000E+00  0.00000000E+00  0.00000000E+00
  0.00000000E+00  0.00000000E+00  0.00000000E+00
  0.00000000E+00  0.00000000E+00  0.00000000E+00
  0.00000000E+00  0.00000000E+00  0.00000000E+00
  0.00000000E+00  0.00000000E+00  0.00000000E+00
  0.00000000E+00  0.00000000E+00  0.00000000E+00
  0.00000000E+00  0.00000000E+00  0.00000000E+00
  0.00000000E+00  0.00000000E+00  0.00000000E+00
  0.00000000E+00  0.00000000E+00  0.00000000E+00
  0.00000000E+00  0.00000000E+00  0.00000000E+00
  0.00000000E+00  0.00000000E+00  0.00000000E+00
  0.00000000E+00  0.00000000E+00  0.00000000E+00
  0.00000000E+00  0.00000000E+00  0.00000000E+00
  0.00000000E+00  0.00000000E+00  0.00000000E+00
  0.00000000E+00  0.00000000E+00  0.00000000E+00
  0.00000000E+00  0.00000000E+00  0.00000000E+00
  0.00000000E+00  0.00000000E+00  0.00000000E+00
  0.00000000E+00  0.00000000E+00  0.00000000E+00
  0.00000000E+00  0.00000000E+00  0.00000000E+00
  0.00000000E+00  0.00000000E+00  0.00000000E+00
  0.00000000E+00  0.00000000E+00  0.00000000E+00
  0.00000000E+00  0.00000000E+00  0.00000000E+00
  0.00000000E+00  0.00000000E+00  0.00000000E+00
  0.00000000E+00  0.00000000E+00  0.00000000E+00
  0.00000000E+00  0.00000000E+00  0.00000000E+00
  0.00000000E+00  0.00000000E+00  0.00000000E+00
  0.00000000E+00  0.00000000E+00  0.00000000E+00
  0.00000000E+00  0.00000000E+00  0.00000000E+00
  0.00000000E+00  0.00000000E+00  0.00000000E+00
  0.00000000E+00  0.00000000E+00  0.00000000E+00
  0.00000000E+00  0.00000000E+00  0.00000000E+00
  0.00000000E+00  0.00000000E+00  0.00000000E+00
  0.00000000E+00  0.00000000E+00  0.00000000E+00
  0.00000000E+00  0.00000000E+00  0.00000000E+00
  0.00000000E+00  0.00000000E+00  0.00000000E+00
  0.00000000E+00  0.00000000E+00  0.00000000E+00
  0.00000000E+00  0.00000000E+00  0.00000000E+00
  0.00000000E+00  0.00000000E+00  0.00000000E+00
  0.00000000E+00  0.00000000E+00  0.00000000E+00
  0.00000000E+00  0.00000000E+00  0.00000000E+00
  0.00000000E+00  0.00000000E+00  0.00000000E+00
  0.00000000E+00  0.00000000E+00  0.00000000E+00
  0.00000000E+00  0.00000000E+00  0.00000000E+00
  0.00000000E+00  0.00000000E+00  0.00000000E+00
  0.00000000E+00  0.00000000E+00  0.00000000E+00
  0.00000000E+00  0.00000000E+00  0.00000000E+00
  0.00000000E+00  0.00000000E+00  0.00000000E+00
  0.00000000E+00  0.00000000E+00  0.00000000E+00
  0.00000000E+00  0.00000000E+00  0.00000000E+00
  0.00000000E+00  0.00000000E+00  0.00000000E+00
  0.00000000E+00  0.00000000E+00  0.00000000E+00
  0.00000000E+00  0.00000000E+00  0.00000000E+00
  0.00000000E+00  0.00000000E+00  0.00000000E+00
  0.00000000E+00  0.00000000E+00  0.00000000E+00
  0.00000000E+00  0.00000000E+00  0.00000000E+00
  0.00000000E+00  0.00000000E+00  0.00000000E+00
  0.00000000E+00  0.00000000E+00  0.00000000E+00
  0.00000000E+00  0.00000000E+00  0.00000000E+00
