generated by phonopy                    
    1.003322283542089     
    48.3644691938635134   -0.0000000000000000   -0.0000000000000000
     0.0000000000000000    5.0642998998050706   -0.0000000000000000
     0.0000000000000000   -2.5321499499025353    4.3858123656141874
   Co   Ru
    88     8
Direct
  0.0227240669741586  0.3333333333333286  0.1666666666666714
  0.0227240669741586  0.3333333333333286  0.6666666666666714
  0.0227240669741586  0.8333333333333286  0.1666666666666714
  0.0227240669741586  0.8333333333333286  0.6666666666666714
  0.0638604724451507  0.1666666666666714  0.3333333333333286
  0.0638604724451507  0.1666666666666714  0.8333333333333286
  0.0638604724451507  0.6666666666666714  0.3333333333333286
  0.0638604724451507  0.6666666666666714  0.8333333333333286
  0.1051919327102801  0.3333333333333286  0.1666666666666714
  0.1051919327102801  0.3333333333333286  0.6666666666666714
  0.1051919327102801  0.8333333333333286  0.1666666666666714
  0.1051919327102801  0.8333333333333286  0.6666666666666714
  0.1464648704000853  0.1666666666666714  0.3333333333333286
  0.1464648704000853  0.1666666666666714  0.8333333333333286
  0.1464648704000853  0.6666666666666714  0.3333333333333286
  0.1464648704000853  0.6666666666666714  0.8333333333333286
  0.1878629031987998  0.3333333333333286  0.1666666666666714
  0.1878629031987998  0.3333333333333286  0.6666666666666714
  0.1878629031987998  0.8333333333333286  0.1666666666666714
  0.1878629031987998  0.8333333333333286  0.6666666666666714
  0.2291666666666643  0.1666666666666714  0.3333333333333286
  0.2291666666666643  0.1666666666666714  0.8333333333333286
  0.2291666666666643  0.6666666666666714  0.3333333333333286
  0.2291666666666643  0.6666666666666714  0.8333333333333286
  0.2704704301345360  0.3333333333333286  0.1666666666666714
  0.2704704301345360  0.3333333333333286  0.6666666666666714
  0.2704704301345360  0.8333333333333286  0.1666666666666714
  0.2704704301345360  0.8333333333333286  0.6666666666666714
  0.3118684629332504  0.1666666666666714  0.3333333333333286
  0.3118684629332504  0.1666666666666714  0.8333333333333286
  0.3118684629332504  0.6666666666666714  0.3333333333333286
  0.3118684629332504  0.6666666666666714  0.8333333333333286
  0.3531414006230484  0.3333333333333286  0.1666666666666714
  0.3531414006230484  0.3333333333333286  0.6666666666666714
  0.3531414006230484  0.8333333333333286  0.1666666666666714
  0.3531414006230484  0.8333333333333286  0.6666666666666714
  0.3944728608881850  0.1666666666666714  0.3333333333333286
  0.3944728608881850  0.1666666666666714  0.8333333333333286
  0.3944728608881850  0.6666666666666714  0.3333333333333286
  0.3944728608881850  0.6666666666666714  0.8333333333333286
  0.4356092663591771  0.3333333333333286  0.1666666666666714
  0.4356092663591771  0.3333333333333286  0.6666666666666714
  0.4356092663591771  0.8333333333333286  0.1666666666666714
  0.4356092663591771  0.8333333333333286  0.6666666666666714
  0.5227240669741585  0.3333333333333286  0.1666666666666714
  0.5227240669741585  0.3333333333333286  0.6666666666666714
  0.5227240669741585  0.8333333333333286  0.1666666666666714
  0.5227240669741585  0.8333333333333286  0.6666666666666714
  0.5638604724451508  0.1666666666666714  0.3333333333333286
  0.5638604724451508  0.1666666666666714  0.8333333333333286
  0.5638604724451508  0.6666666666666714  0.3333333333333286
  0.5638604724451508  0.6666666666666714  0.8333333333333286
  0.6051919327102802  0.3333333333333286  0.1666666666666714
  0.6051919327102802  0.3333333333333286  0.6666666666666714
  0.6051919327102802  0.8333333333333286  0.1666666666666714
  0.6051919327102802  0.8333333333333286  0.6666666666666714
  0.6464648704000853  0.1666666666666714  0.3333333333333286
  0.6464648704000853  0.1666666666666714  0.8333333333333286
  0.6464648704000853  0.6666666666666714  0.3333333333333286
  0.6464648704000853  0.6666666666666714  0.8333333333333286
  0.6878629031988069  0.3333333333333286  0.1666666666666714
  0.6878629031988069  0.3333333333333286  0.6666666666666714
  0.6878629031988069  0.8333333333333286  0.1666666666666714
  0.6878629031988069  0.8333333333333286  0.6666666666666714
  0.7291666666666643  0.1666666666666714  0.3333333333333286
  0.7291666666666643  0.1666666666666714  0.8333333333333286
  0.7291666666666643  0.6666666666666714  0.3333333333333286
  0.7291666666666643  0.6666666666666714  0.8333333333333286
  0.7704704301345288  0.3333333333333286  0.1666666666666714
  0.7704704301345288  0.3333333333333286  0.6666666666666714
  0.7704704301345288  0.8333333333333286  0.1666666666666714
  0.7704704301345288  0.8333333333333286  0.6666666666666714
  0.8118684629332504  0.1666666666666714  0.3333333333333286
  0.8118684629332504  0.1666666666666714  0.8333333333333286
  0.8118684629332504  0.6666666666666714  0.3333333333333286
  0.8118684629332504  0.6666666666666714  0.8333333333333286
  0.8531414006230484  0.3333333333333286  0.1666666666666714
  0.8531414006230484  0.3333333333333286  0.6666666666666714
  0.8531414006230484  0.8333333333333286  0.1666666666666714
  0.8531414006230484  0.8333333333333286  0.6666666666666714
  0.8944728608881849  0.1666666666666714  0.3333333333333286
  0.8944728608881849  0.1666666666666714  0.8333333333333286
  0.8944728608881849  0.6666666666666714  0.3333333333333286
  0.8944728608881849  0.6666666666666714  0.8333333333333286
  0.9356092663591772  0.3333333333333286  0.1666666666666714
  0.9356092663591772  0.3333333333333286  0.6666666666666714
  0.9356092663591772  0.8333333333333286  0.1666666666666714
  0.9356092663591772  0.8333333333333286  0.6666666666666714
  0.4791666666666643  0.1666666666666714  0.3333333333333286
  0.4791666666666643  0.1666666666666714  0.8333333333333286
  0.4791666666666643  0.6666666666666714  0.3333333333333286
  0.4791666666666643  0.6666666666666714  0.8333333333333286
  0.9791666666666643  0.1666666666666714  0.3333333333333286
  0.9791666666666643  0.1666666666666714  0.8333333333333286
  0.9791666666666643  0.6666666666666714  0.3333333333333286
  0.9791666666666643  0.6666666666666714  0.8333333333333286
 
  0.00000000E+00  0.00000000E+00  0.00000000E+00
  0.00000000E+00  0.00000000E+00  0.00000000E+00
  0.00000000E+00  0.00000000E+00  0.00000000E+00
  0.00000000E+00  0.00000000E+00  0.00000000E+00
  0.00000000E+00  0.00000000E+00  0.00000000E+00
  0.00000000E+00  0.00000000E+00  0.00000000E+00
  0.00000000E+00  0.00000000E+00  0.00000000E+00
  0.00000000E+00  0.00000000E+00  0.00000000E+00
  0.00000000E+00  0.00000000E+00  0.00000000E+00
  0.00000000E+00  0.00000000E+00  0.00000000E+00
  0.00000000E+00  0.00000000E+00  0.00000000E+00
  0.00000000E+00  0.00000000E+00  0.00000000E+00
  0.00000000E+00  0.00000000E+00  0.00000000E+00
  0.00000000E+00  0.00000000E+00  0.00000000E+00
  0.00000000E+00  0.00000000E+00  0.00000000E+00
  0.00000000E+00  0.00000000E+00  0.00000000E+00
  0.00000000E+00  0.00000000E+00  0.00000000E+00
  0.00000000E+00  0.00000000E+00  0.00000000E+00
  0.00000000E+00  0.00000000E+00  0.00000000E+00
  0.00000000E+00  0.00000000E+00  0.00000000E+00
  0.00000000E+00  0.00000000E+00  0.00000000E+00
  0.00000000E+00  0.00000000E+00  0.00000000E+00
  0.00000000E+00  0.00000000E+00  0.00000000E+00
  0.00000000E+00  0.00000000E+00  0.00000000E+00
  0.00000000E+00  0.00000000E+00  0.00000000E+00
  0.00000000E+00  0.00000000E+00  0.00000000E+00
  0.00000000E+00  0.00000000E+00  0.00000000E+00
  0.00000000E+00  0.00000000E+00  0.00000000E+00
  0.00000000E+00  0.00000000E+00  0.00000000E+00
  0.00000000E+00  0.00000000E+00  0.00000000E+00
  0.00000000E+00  0.00000000E+00  0.00000000E+00
  0.00000000E+00  0.00000000E+00  0.00000000E+00
  0.00000000E+00  0.00000000E+00  0.00000000E+00
  0.00000000E+00  0.00000000E+00  0.00000000E+00
  0.00000000E+00  0.00000000E+00  0.00000000E+00
  0.00000000E+00  0.00000000E+00  0.00000000E+00
  0.00000000E+00  0.00000000E+00  0.00000000E+00
  0.00000000E+00  0.00000000E+00  0.00000000E+00
  0.00000000E+00  0.00000000E+00  0.00000000E+00
  0.00000000E+00  0.00000000E+00  0.00000000E+00
  0.00000000E+00  0.00000000E+00  0.00000000E+00
  0.00000000E+00  0.00000000E+00  0.00000000E+00
  0.00000000E+00  0.00000000E+00  0.00000000E+00
  0.00000000E+00  0.00000000E+00  0.00000000E+00
  0.00000000E+00  0.00000000E+00  0.00000000E+00
  0.00000000E+00  0.00000000E+00  0.00000000E+00
  0.00000000E+00  0.00000000E+00  0.00000000E+00
  0.00000000E+00  0.00000000E+00  0.00000000E+00
  0.00000000E+00  0.00000000E+00  0.00000000E+00
  0.00000000E+00  0.00000000E+00  0.00000000E+00
  0.00000000E+00  0.00000000E+00  0.00000000E+00
  0.00000000E+00  0.00000000E+00  0.00000000E+00
  0.00000000E+00  0.00000000E+00  0.00000000E+00
  0.00000000E+00  0.00000000E+00  0.00000000E+00
  0.00000000E+00  0.00000000E+00  0.00000000E+00
  0.00000000E+00  0.00000000E+00  0.00000000E+00
  0.00000000E+00  0.00000000E+00  0.00000000E+00
  0.00000000E+00  0.00000000E+00  0.00000000E+00
  0.00000000E+00  0.00000000E+00  0.00000000E+00
  0.00000000E+00  0.00000000E+00  0.00000000E+00
  0.00000000E+00  0.00000000E+00  0.00000000E+00
  0.00000000E+00  0.00000000E+00  0.00000000E+00
  0.00000000E+00  0.00000000E+00  0.00000000E+00
  0.00000000E+00  0.00000000E+00  0.00000000E+00
  0.00000000E+00  0.00000000E+00  0.00000000E+00
  0.00000000E+00  0.00000000E+00  0.00000000E+00
  0.00000000E+00  0.00000000E+00  0.00000000E+00
  0.00000000E+00  0.00000000E+00  0.00000000E+00
  0.00000000E+00  0.00000000E+00  0.00000000E+00
  0.00000000E+00  0.00000000E+00  0.00000000E+00
  0.00000000E+00  0.00000000E+00  0.00000000E+00
  0.00000000E+00  0.00000000E+00  0.00000000E+00
  0.00000000E+00  0.00000000E+00  0.00000000E+00
  0.00000000E+00  0.00000000E+00  0.00000000E+00
  0.00000000E+00  0.00000000E+00  0.00000000E+00
  0.00000000E+00  0.00000000E+00  0.00000000E+00
  0.00000000E+00  0.00000000E+00  0.00000000E+00
  0.00000000E+00  0.00000000E+00  0.00000000E+00
  0.00000000E+00  0.00000000E+00  0.00000000E+00
  0.00000000E+00  0.00000000E+00  0.00000000E+00
  0.00000000E+00  0.00000000E+00  0.00000000E+00
  0.00000000E+00  0.00000000E+00  0.00000000E+00
  0.00000000E+00  0.00000000E+00  0.00000000E+00
  0.00000000E+00  0.00000000E+00  0.00000000E+00
  0.00000000E+00  0.00000000E+00  0.00000000E+00
  0.00000000E+00  0.00000000E+00  0.00000000E+00
  0.00000000E+00  0.00000000E+00  0.00000000E+00
  0.00000000E+00  0.00000000E+00  0.00000000E+00
  0.00000000E+00  0.00000000E+00  0.00000000E+00
  0.00000000E+00  0.00000000E+00  0.00000000E+00
  0.00000000E+00  0.00000000E+00  0.00000000E+00
  0.00000000E+00  0.00000000E+00  0.00000000E+00
  0.00000000E+00  0.00000000E+00  0.00000000E+00
  0.00000000E+00  0.00000000E+00  0.00000000E+00
  0.00000000E+00  0.00000000E+00  0.00000000E+00
  0.00000000E+00  0.00000000E+00  0.00000000E+00
