generated by phonopy                    
    1.003322283542090     
    28.2411518384475748   -0.0000000000000000    0.0000000000000000
    -0.0000000000000000    5.1994281479471072    0.0000000000000001
    -0.0000000000000000   -2.5997140739735536    4.5028368612740701
   Co   Ru
    40    16
Direct
  0.0403607656127029  0.3333333333333286  0.1666666666666714
  0.0403607656127029  0.3333333333333286  0.6666666666666714
  0.0403607656127029  0.8333333333333286  0.1666666666666714
  0.0403607656127029  0.8333333333333286  0.6666666666666714
  0.1092691800312233  0.1666666666666714  0.3333333333333286
  0.1092691800312233  0.1666666666666714  0.8333333333333286
  0.1092691800312233  0.6666666666666714  0.3333333333333286
  0.1092691800312233  0.6666666666666714  0.8333333333333286
  0.1785721080306502  0.3333333333333286  0.1666666666666714
  0.1785721080306502  0.3333333333333286  0.6666666666666714
  0.1785721080306502  0.8333333333333286  0.1666666666666714
  0.1785721080306502  0.8333333333333286  0.6666666666666714
  0.2478745090822263  0.1666666666666714  0.3333333333333286
  0.2478745090822263  0.1666666666666714  0.8333333333333286
  0.2478745090822263  0.6666666666666714  0.3333333333333286
  0.2478745090822263  0.6666666666666714  0.8333333333333286
  0.3167817625483245  0.3333333333333286  0.1666666666666714
  0.3167817625483245  0.3333333333333286  0.6666666666666714
  0.3167817625483245  0.8333333333333286  0.1666666666666714
  0.3167817625483245  0.8333333333333286  0.6666666666666714
  0.5403607656127031  0.1666666666666714  0.3333333333333286
  0.5403607656127031  0.1666666666666714  0.8333333333333286
  0.5403607656127031  0.6666666666666714  0.3333333333333286
  0.5403607656127031  0.6666666666666714  0.8333333333333286
  0.6092691800312234  0.3333333333333286  0.1666666666666714
  0.6092691800312234  0.3333333333333286  0.6666666666666714
  0.6092691800312234  0.8333333333333286  0.1666666666666714
  0.6092691800312234  0.8333333333333286  0.6666666666666714
  0.6785721080306502  0.1666666666666714  0.3333333333333286
  0.6785721080306502  0.1666666666666714  0.8333333333333286
  0.6785721080306502  0.6666666666666714  0.3333333333333286
  0.6785721080306502  0.6666666666666714  0.8333333333333286
  0.7478745090822333  0.3333333333333286  0.1666666666666714
  0.7478745090822333  0.3333333333333286  0.6666666666666714
  0.7478745090822333  0.8333333333333286  0.1666666666666714
  0.7478745090822333  0.8333333333333286  0.6666666666666714
  0.8167817625483244  0.1666666666666714  0.3333333333333286
  0.8167817625483244  0.1666666666666714  0.8333333333333286
  0.8167817625483244  0.6666666666666714  0.3333333333333286
  0.8167817625483244  0.6666666666666714  0.8333333333333286
  0.3905719468585190  0.1666666666666714  0.3333333333333286
  0.3905719468585190  0.1666666666666714  0.8333333333333286
  0.3905719468585190  0.6666666666666714  0.3333333333333286
  0.3905719468585190  0.6666666666666714  0.8333333333333286
  0.4665697278363680  0.3333333333333286  0.1666666666666714
  0.4665697278363680  0.3333333333333286  0.6666666666666714
  0.4665697278363680  0.8333333333333286  0.1666666666666714
  0.4665697278363680  0.8333333333333286  0.6666666666666714
  0.8905719468585186  0.3333333333333286  0.1666666666666714
  0.8905719468585186  0.3333333333333286  0.6666666666666714
  0.8905719468585186  0.8333333333333286  0.1666666666666714
  0.8905719468585186  0.8333333333333286  0.6666666666666714
  0.9665697278363684  0.1666666666666714  0.3333333333333286
  0.9665697278363684  0.1666666666666714  0.8333333333333286
  0.9665697278363684  0.6666666666666714  0.3333333333333286
  0.9665697278363684  0.6666666666666714  0.8333333333333286
 
  0.00000000E+00  0.00000000E+00  0.00000000E+00
  0.00000000E+00  0.00000000E+00  0.00000000E+00
  0.00000000E+00  0.00000000E+00  0.00000000E+00
  0.00000000E+00  0.00000000E+00  0.00000000E+00
  0.00000000E+00  0.00000000E+00  0.00000000E+00
  0.00000000E+00  0.00000000E+00  0.00000000E+00
  0.00000000E+00  0.00000000E+00  0.00000000E+00
  0.00000000E+00  0.00000000E+00  0.00000000E+00
  0.00000000E+00  0.00000000E+00  0.00000000E+00
  0.00000000E+00  0.00000000E+00  0.00000000E+00
  0.00000000E+00  0.00000000E+00  0.00000000E+00
  0.00000000E+00  0.00000000E+00  0.00000000E+00
  0.00000000E+00  0.00000000E+00  0.00000000E+00
  0.00000000E+00  0.00000000E+00  0.00000000E+00
  0.00000000E+00  0.00000000E+00  0.00000000E+00
  0.00000000E+00  0.00000000E+00  0.00000000E+00
  0.00000000E+00  0.00000000E+00  0.00000000E+00
  0.00000000E+00  0.00000000E+00  0.00000000E+00
  0.00000000E+00  0.00000000E+00  0.00000000E+00
  0.00000000E+00  0.00000000E+00  0.00000000E+00
  0.00000000E+00  0.00000000E+00  0.00000000E+00
  0.00000000E+00  0.00000000E+00  0.00000000E+00
  0.00000000E+00  0.00000000E+00  0.00000000E+00
  0.00000000E+00  0.00000000E+00  0.00000000E+00
  0.00000000E+00  0.00000000E+00  0.00000000E+00
  0.00000000E+00  0.00000000E+00  0.00000000E+00
  0.00000000E+00  0.00000000E+00  0.00000000E+00
  0.00000000E+00  0.00000000E+00  0.00000000E+00
  0.00000000E+00  0.00000000E+00  0.00000000E+00
  0.00000000E+00  0.00000000E+00  0.00000000E+00
  0.00000000E+00  0.00000000E+00  0.00000000E+00
  0.00000000E+00  0.00000000E+00  0.00000000E+00
  0.00000000E+00  0.00000000E+00  0.00000000E+00
  0.00000000E+00  0.00000000E+00  0.00000000E+00
  0.00000000E+00  0.00000000E+00  0.00000000E+00
  0.00000000E+00  0.00000000E+00  0.00000000E+00
  0.00000000E+00  0.00000000E+00  0.00000000E+00
  0.00000000E+00  0.00000000E+00  0.00000000E+00
  0.00000000E+00  0.00000000E+00  0.00000000E+00
  0.00000000E+00  0.00000000E+00  0.00000000E+00
  0.00000000E+00  0.00000000E+00  0.00000000E+00
  0.00000000E+00  0.00000000E+00  0.00000000E+00
  0.00000000E+00  0.00000000E+00  0.00000000E+00
  0.00000000E+00  0.00000000E+00  0.00000000E+00
  0.00000000E+00  0.00000000E+00  0.00000000E+00
  0.00000000E+00  0.00000000E+00  0.00000000E+00
  0.00000000E+00  0.00000000E+00  0.00000000E+00
  0.00000000E+00  0.00000000E+00  0.00000000E+00
  0.00000000E+00  0.00000000E+00  0.00000000E+00
  0.00000000E+00  0.00000000E+00  0.00000000E+00
  0.00000000E+00  0.00000000E+00  0.00000000E+00
  0.00000000E+00  0.00000000E+00  0.00000000E+00
  0.00000000E+00  0.00000000E+00  0.00000000E+00
  0.00000000E+00  0.00000000E+00  0.00000000E+00
  0.00000000E+00  0.00000000E+00  0.00000000E+00
  0.00000000E+00  0.00000000E+00  0.00000000E+00
