generated by phonopy                    
    1.021629455439837     
    55.7224276467223021   -0.0000000000000000    0.0000000000000000
    -0.0000000000000000    5.0406148629112559   -0.0000000000000001
    -0.0000000000000000   -2.5203074314556275    4.3653005219745582
   Co   Ru
    96    16
Direct
  0.0210575416613620  0.3333333333333286  0.1666666666666714
  0.0210575416613620  0.3333333333333286  0.6666666666666714
  0.0210575416613620  0.8333333333333286  0.1666666666666714
  0.0210575416613620  0.8333333333333286  0.6666666666666714
  0.0560405451795844  0.1666666666666714  0.3333333333333286
  0.0560405451795844  0.1666666666666714  0.8333333333333286
  0.0560405451795844  0.6666666666666714  0.3333333333333286
  0.0560405451795844  0.6666666666666714  0.8333333333333286
  0.0912410831690719  0.3333333333333286  0.1666666666666714
  0.0912410831690719  0.3333333333333286  0.6666666666666714
  0.0912410831690719  0.8333333333333286  0.1666666666666714
  0.0912410831690719  0.8333333333333286  0.6666666666666714
  0.1263955409470298  0.1666666666666714  0.3333333333333286
  0.1263955409470298  0.1666666666666714  0.8333333333333286
  0.1263955409470298  0.6666666666666714  0.3333333333333286
  0.1263955409470298  0.6666666666666714  0.8333333333333286
  0.1615691742744402  0.3333333333333286  0.1666666666666714
  0.1615691742744402  0.3333333333333286  0.6666666666666714
  0.1615691742744402  0.8333333333333286  0.1666666666666714
  0.1615691742744402  0.8333333333333286  0.6666666666666714
  0.1967124274620593  0.1666666666666714  0.3333333333333286
  0.1967124274620593  0.1666666666666714  0.8333333333333286
  0.1967124274620593  0.6666666666666714  0.3333333333333286
  0.1967124274620593  0.6666666666666714  0.8333333333333286
  0.2318617927946542  0.3333333333333286  0.1666666666666714
  0.2318617927946542  0.3333333333333286  0.6666666666666714
  0.2318617927946542  0.8333333333333286  0.1666666666666714
  0.2318617927946542  0.8333333333333286  0.6666666666666714
  0.2670045886945122  0.1666666666666714  0.3333333333333286
  0.2670045886945122  0.1666666666666714  0.8333333333333286
  0.2670045886945122  0.6666666666666714  0.3333333333333286
  0.2670045886945122  0.6666666666666714  0.8333333333333286
  0.3021773098265473  0.3333333333333286  0.1666666666666714
  0.3021773098265473  0.3333333333333286  0.6666666666666714
  0.3021773098265473  0.8333333333333286  0.1666666666666714
  0.3021773098265473  0.8333333333333286  0.6666666666666714
  0.3373304894375143  0.1666666666666714  0.3333333333333286
  0.3373304894375143  0.1666666666666714  0.8333333333333286
  0.3373304894375143  0.6666666666666714  0.3333333333333286
  0.3373304894375143  0.6666666666666714  0.8333333333333286
  0.3725296044159664  0.3333333333333286  0.1666666666666714
  0.3725296044159664  0.3333333333333286  0.6666666666666714
  0.3725296044159664  0.8333333333333286  0.1666666666666714
  0.3725296044159664  0.8333333333333286  0.6666666666666714
  0.4075114389758186  0.1666666666666714  0.3333333333333286
  0.4075114389758186  0.1666666666666714  0.8333333333333286
  0.4075114389758186  0.6666666666666714  0.3333333333333286
  0.4075114389758186  0.6666666666666714  0.8333333333333286
  0.5210575416613624  0.3333333333333286  0.1666666666666714
  0.5210575416613624  0.3333333333333286  0.6666666666666714
  0.5210575416613624  0.8333333333333286  0.1666666666666714
  0.5210575416613624  0.8333333333333286  0.6666666666666714
  0.5560405451795775  0.1666666666666714  0.3333333333333286
  0.5560405451795775  0.1666666666666714  0.8333333333333286
  0.5560405451795775  0.6666666666666714  0.3333333333333286
  0.5560405451795775  0.6666666666666714  0.8333333333333286
  0.5912410831690721  0.3333333333333286  0.1666666666666714
  0.5912410831690721  0.3333333333333286  0.6666666666666714
  0.5912410831690721  0.8333333333333286  0.1666666666666714
  0.5912410831690721  0.8333333333333286  0.6666666666666714
  0.6263955409470444  0.1666666666666714  0.3333333333333286
  0.6263955409470444  0.1666666666666714  0.8333333333333286
  0.6263955409470444  0.6666666666666714  0.3333333333333286
  0.6263955409470444  0.6666666666666714  0.8333333333333286
  0.6615691742744404  0.3333333333333286  0.1666666666666714
  0.6615691742744404  0.3333333333333286  0.6666666666666714
  0.6615691742744404  0.8333333333333286  0.1666666666666714
  0.6615691742744404  0.8333333333333286  0.6666666666666714
  0.6967124274620665  0.1666666666666714  0.3333333333333286
  0.6967124274620665  0.1666666666666714  0.8333333333333286
  0.6967124274620665  0.6666666666666714  0.3333333333333286
  0.6967124274620665  0.6666666666666714  0.8333333333333286
  0.7318617927946541  0.3333333333333286  0.1666666666666714
  0.7318617927946541  0.3333333333333286  0.6666666666666714
  0.7318617927946541  0.8333333333333286  0.1666666666666714
  0.7318617927946541  0.8333333333333286  0.6666666666666714
  0.7670045886945046  0.1666666666666714  0.3333333333333286
  0.7670045886945046  0.1666666666666714  0.8333333333333286
  0.7670045886945046  0.6666666666666714  0.3333333333333286
  0.7670045886945046  0.6666666666666714  0.8333333333333286
  0.8021773098265467  0.3333333333333286  0.1666666666666714
  0.8021773098265467  0.3333333333333286  0.6666666666666714
  0.8021773098265467  0.8333333333333286  0.1666666666666714
  0.8021773098265467  0.8333333333333286  0.6666666666666714
  0.8373304894374997  0.1666666666666714  0.3333333333333286
  0.8373304894374997  0.1666666666666714  0.8333333333333286
  0.8373304894374997  0.6666666666666714  0.3333333333333286
  0.8373304894374997  0.6666666666666714  0.8333333333333286
  0.8725296044159662  0.3333333333333286  0.1666666666666714
  0.8725296044159662  0.3333333333333286  0.6666666666666714
  0.8725296044159662  0.8333333333333286  0.1666666666666714
  0.8725296044159662  0.8333333333333286  0.6666666666666714
  0.9075114389758182  0.1666666666666714  0.3333333333333286
  0.9075114389758182  0.1666666666666714  0.8333333333333286
  0.9075114389758182  0.6666666666666714  0.3333333333333286
  0.9075114389758182  0.6666666666666714  0.8333333333333286
  0.4449412993942066  0.3333333333333286  0.1666666666666714
  0.4449412993942066  0.3333333333333286  0.6666666666666714
  0.4449412993942066  0.8333333333333286  0.1666666666666714
  0.4449412993942066  0.8333333333333286  0.6666666666666714
  0.4836271637672335  0.1666666666666714  0.3333333333333286
  0.4836271637672335  0.1666666666666714  0.8333333333333286
  0.4836271637672335  0.6666666666666714  0.3333333333333286
  0.4836271637672335  0.6666666666666714  0.8333333333333286
  0.9449412993942067  0.3333333333333286  0.1666666666666714
  0.9449412993942067  0.3333333333333286  0.6666666666666714
  0.9449412993942067  0.8333333333333286  0.1666666666666714
  0.9449412993942067  0.8333333333333286  0.6666666666666714
  0.9836271637672335  0.1666666666666714  0.3333333333333286
  0.9836271637672335  0.1666666666666714  0.8333333333333286
  0.9836271637672335  0.6666666666666714  0.3333333333333286
  0.9836271637672335  0.6666666666666714  0.8333333333333286
 
  0.00000000E+00  0.00000000E+00  0.00000000E+00
  0.00000000E+00  0.00000000E+00  0.00000000E+00
  0.00000000E+00  0.00000000E+00  0.00000000E+00
  0.00000000E+00  0.00000000E+00  0.00000000E+00
  0.00000000E+00  0.00000000E+00  0.00000000E+00
  0.00000000E+00  0.00000000E+00  0.00000000E+00
  0.00000000E+00  0.00000000E+00  0.00000000E+00
  0.00000000E+00  0.00000000E+00  0.00000000E+00
  0.00000000E+00  0.00000000E+00  0.00000000E+00
  0.00000000E+00  0.00000000E+00  0.00000000E+00
  0.00000000E+00  0.00000000E+00  0.00000000E+00
  0.00000000E+00  0.00000000E+00  0.00000000E+00
  0.00000000E+00  0.00000000E+00  0.00000000E+00
  0.00000000E+00  0.00000000E+00  0.00000000E+00
  0.00000000E+00  0.00000000E+00  0.00000000E+00
  0.00000000E+00  0.00000000E+00  0.00000000E+00
  0.00000000E+00  0.00000000E+00  0.00000000E+00
  0.00000000E+00  0.00000000E+00  0.00000000E+00
  0.00000000E+00  0.00000000E+00  0.00000000E+00
  0.00000000E+00  0.00000000E+00  0.00000000E+00
  0.00000000E+00  0.00000000E+00  0.00000000E+00
  0.00000000E+00  0.00000000E+00  0.00000000E+00
  0.00000000E+00  0.00000000E+00  0.00000000E+00
  0.00000000E+00  0.00000000E+00  0.00000000E+00
  0.00000000E+00  0.00000000E+00  0.00000000E+00
  0.00000000E+00  0.00000000E+00  0.00000000E+00
  0.00000000E+00  0.00000000E+00  0.00000000E+00
  0.00000000E+00  0.00000000E+00  0.00000000E+00
  0.00000000E+00  0.00000000E+00  0.00000000E+00
  0.00000000E+00  0.00000000E+00  0.00000000E+00
  0.00000000E+00  0.00000000E+00  0.00000000E+00
  0.00000000E+00  0.00000000E+00  0.00000000E+00
  0.00000000E+00  0.00000000E+00  0.00000000E+00
  0.00000000E+00  0.00000000E+00  0.00000000E+00
  0.00000000E+00  0.00000000E+00  0.00000000E+00
  0.00000000E+00  0.00000000E+00  0.00000000E+00
  0.00000000E+00  0.00000000E+00  0.00000000E+00
  0.00000000E+00  0.00000000E+00  0.00000000E+00
  0.00000000E+00  0.00000000E+00  0.00000000E+00
  0.00000000E+00  0.00000000E+00  0.00000000E+00
  0.00000000E+00  0.00000000E+00  0.00000000E+00
  0.00000000E+00  0.00000000E+00  0.00000000E+00
  0.00000000E+00  0.00000000E+00  0.00000000E+00
  0.00000000E+00  0.00000000E+00  0.00000000E+00
  0.00000000E+00  0.00000000E+00  0.00000000E+00
  0.00000000E+00  0.00000000E+00  0.00000000E+00
  0.00000000E+00  0.00000000E+00  0.00000000E+00
  0.00000000E+00  0.00000000E+00  0.00000000E+00
  0.00000000E+00  0.00000000E+00  0.00000000E+00
  0.00000000E+00  0.00000000E+00  0.00000000E+00
  0.00000000E+00  0.00000000E+00  0.00000000E+00
  0.00000000E+00  0.00000000E+00  0.00000000E+00
  0.00000000E+00  0.00000000E+00  0.00000000E+00
  0.00000000E+00  0.00000000E+00  0.00000000E+00
  0.00000000E+00  0.00000000E+00  0.00000000E+00
  0.00000000E+00  0.00000000E+00  0.00000000E+00
  0.00000000E+00  0.00000000E+00  0.00000000E+00
  0.00000000E+00  0.00000000E+00  0.00000000E+00
  0.00000000E+00  0.00000000E+00  0.00000000E+00
  0.00000000E+00  0.00000000E+00  0.00000000E+00
  0.00000000E+00  0.00000000E+00  0.00000000E+00
  0.00000000E+00  0.00000000E+00  0.00000000E+00
  0.00000000E+00  0.00000000E+00  0.00000000E+00
  0.00000000E+00  0.00000000E+00  0.00000000E+00
  0.00000000E+00  0.00000000E+00  0.00000000E+00
  0.00000000E+00  0.00000000E+00  0.00000000E+00
  0.00000000E+00  0.00000000E+00  0.00000000E+00
  0.00000000E+00  0.00000000E+00  0.00000000E+00
  0.00000000E+00  0.00000000E+00  0.00000000E+00
  0.00000000E+00  0.00000000E+00  0.00000000E+00
  0.00000000E+00  0.00000000E+00  0.00000000E+00
  0.00000000E+00  0.00000000E+00  0.00000000E+00
  0.00000000E+00  0.00000000E+00  0.00000000E+00
  0.00000000E+00  0.00000000E+00  0.00000000E+00
  0.00000000E+00  0.00000000E+00  0.00000000E+00
  0.00000000E+00  0.00000000E+00  0.00000000E+00
  0.00000000E+00  0.00000000E+00  0.00000000E+00
  0.00000000E+00  0.00000000E+00  0.00000000E+00
  0.00000000E+00  0.00000000E+00  0.00000000E+00
  0.00000000E+00  0.00000000E+00  0.00000000E+00
  0.00000000E+00  0.00000000E+00  0.00000000E+00
  0.00000000E+00  0.00000000E+00  0.00000000E+00
  0.00000000E+00  0.00000000E+00  0.00000000E+00
  0.00000000E+00  0.00000000E+00  0.00000000E+00
  0.00000000E+00  0.00000000E+00  0.00000000E+00
  0.00000000E+00  0.00000000E+00  0.00000000E+00
  0.00000000E+00  0.00000000E+00  0.00000000E+00
  0.00000000E+00  0.00000000E+00  0.00000000E+00
  0.00000000E+00  0.00000000E+00  0.00000000E+00
  0.00000000E+00  0.00000000E+00  0.00000000E+00
  0.00000000E+00  0.00000000E+00  0.00000000E+00
  0.00000000E+00  0.00000000E+00  0.00000000E+00
  0.00000000E+00  0.00000000E+00  0.00000000E+00
  0.00000000E+00  0.00000000E+00  0.00000000E+00
  0.00000000E+00  0.00000000E+00  0.00000000E+00
  0.00000000E+00  0.00000000E+00  0.00000000E+00
  0.00000000E+00  0.00000000E+00  0.00000000E+00
  0.00000000E+00  0.00000000E+00  0.00000000E+00
  0.00000000E+00  0.00000000E+00  0.00000000E+00
  0.00000000E+00  0.00000000E+00  0.00000000E+00
  0.00000000E+00  0.00000000E+00  0.00000000E+00
  0.00000000E+00  0.00000000E+00  0.00000000E+00
  0.00000000E+00  0.00000000E+00  0.00000000E+00
  0.00000000E+00  0.00000000E+00  0.00000000E+00
  0.00000000E+00  0.00000000E+00  0.00000000E+00
  0.00000000E+00  0.00000000E+00  0.00000000E+00
  0.00000000E+00  0.00000000E+00  0.00000000E+00
  0.00000000E+00  0.00000000E+00  0.00000000E+00
  0.00000000E+00  0.00000000E+00  0.00000000E+00
  0.00000000E+00  0.00000000E+00  0.00000000E+00
  0.00000000E+00  0.00000000E+00  0.00000000E+00
  0.00000000E+00  0.00000000E+00  0.00000000E+00
