generated by phonopy                    
    1.006622709560113     
    36.3060025464877398    0.0000000000000000   -0.0000000000000000
     0.0000000000000000    5.0861980638423141    0.0000000000000001
     0.0000000000000000   -2.5430990319211570    4.4047767319666660
   Co   Ru
    64     8
Direct
  0.0300673189804242  0.3333333333333286  0.1666666666666714
  0.0300673189804242  0.3333333333333286  0.6666666666666714
  0.0300673189804242  0.8333333333333286  0.1666666666666714
  0.0300673189804242  0.8333333333333286  0.6666666666666714
  0.0848080107881261  0.1666666666666714  0.3333333333333286
  0.0848080107881261  0.1666666666666714  0.8333333333333286
  0.0848080107881261  0.6666666666666714  0.3333333333333286
  0.0848080107881261  0.6666666666666714  0.8333333333333286
  0.1398280824571847  0.3333333333333286  0.1666666666666714
  0.1398280824571847  0.3333333333333286  0.6666666666666714
  0.1398280824571847  0.8333333333333286  0.1666666666666714
  0.1398280824571847  0.8333333333333286  0.6666666666666714
  0.1946097316959185  0.1666666666666714  0.3333333333333286
  0.1946097316959185  0.1666666666666714  0.8333333333333286
  0.1946097316959185  0.6666666666666714  0.3333333333333286
  0.1946097316959185  0.6666666666666714  0.8333333333333286
  0.2498347127485315  0.3333333333333286  0.1666666666666714
  0.2498347127485315  0.3333333333333286  0.6666666666666714
  0.2498347127485315  0.8333333333333286  0.1666666666666714
  0.2498347127485315  0.8333333333333286  0.6666666666666714
  0.3046163619872582  0.1666666666666714  0.3333333333333286
  0.3046163619872582  0.1666666666666714  0.8333333333333286
  0.3046163619872582  0.6666666666666714  0.3333333333333286
  0.3046163619872582  0.6666666666666714  0.8333333333333286
  0.3596364336563238  0.3333333333333286  0.1666666666666714
  0.3596364336563238  0.3333333333333286  0.6666666666666714
  0.3596364336563238  0.8333333333333286  0.1666666666666714
  0.3596364336563238  0.8333333333333286  0.6666666666666714
  0.4143771254640115  0.1666666666666714  0.3333333333333286
  0.4143771254640115  0.1666666666666714  0.8333333333333286
  0.4143771254640115  0.6666666666666714  0.3333333333333286
  0.4143771254640115  0.6666666666666714  0.8333333333333286
  0.5300673189804314  0.1666666666666714  0.3333333333333286
  0.5300673189804314  0.1666666666666714  0.8333333333333286
  0.5300673189804314  0.6666666666666714  0.3333333333333286
  0.5300673189804314  0.6666666666666714  0.8333333333333286
  0.5848080107881258  0.3333333333333286  0.1666666666666714
  0.5848080107881258  0.3333333333333286  0.6666666666666714
  0.5848080107881258  0.8333333333333286  0.1666666666666714
  0.5848080107881258  0.8333333333333286  0.6666666666666714
  0.6398280824571849  0.1666666666666714  0.3333333333333286
  0.6398280824571849  0.1666666666666714  0.8333333333333286
  0.6398280824571849  0.6666666666666714  0.3333333333333286
  0.6398280824571849  0.6666666666666714  0.8333333333333286
  0.6946097316959182  0.3333333333333286  0.1666666666666714
  0.6946097316959182  0.3333333333333286  0.6666666666666714
  0.6946097316959182  0.8333333333333286  0.1666666666666714
  0.6946097316959182  0.8333333333333286  0.6666666666666714
  0.7498347127485246  0.1666666666666714  0.3333333333333286
  0.7498347127485246  0.1666666666666714  0.8333333333333286
  0.7498347127485246  0.6666666666666714  0.3333333333333286
  0.7498347127485246  0.6666666666666714  0.8333333333333286
  0.8046163619872579  0.3333333333333286  0.1666666666666714
  0.8046163619872579  0.3333333333333286  0.6666666666666714
  0.8046163619872579  0.8333333333333286  0.1666666666666714
  0.8046163619872579  0.8333333333333286  0.6666666666666714
  0.8596364336563241  0.1666666666666714  0.3333333333333286
  0.8596364336563241  0.1666666666666714  0.8333333333333286
  0.8596364336563241  0.6666666666666714  0.3333333333333286
  0.8596364336563241  0.6666666666666714  0.8333333333333286
  0.9143771254640115  0.3333333333333286  0.1666666666666714
  0.9143771254640115  0.3333333333333286  0.6666666666666714
  0.9143771254640115  0.8333333333333286  0.1666666666666714
  0.9143771254640115  0.8333333333333286  0.6666666666666714
  0.4722222222222214  0.3333333333333286  0.1666666666666714
  0.4722222222222214  0.3333333333333286  0.6666666666666714
  0.4722222222222214  0.8333333333333286  0.1666666666666714
  0.4722222222222214  0.8333333333333286  0.6666666666666714
  0.9722222222222214  0.1666666666666714  0.3333333333333286
  0.9722222222222214  0.1666666666666714  0.8333333333333286
  0.9722222222222214  0.6666666666666714  0.3333333333333286
  0.9722222222222214  0.6666666666666714  0.8333333333333286
 
  0.00000000E+00  0.00000000E+00  0.00000000E+00
  0.00000000E+00  0.00000000E+00  0.00000000E+00
  0.00000000E+00  0.00000000E+00  0.00000000E+00
  0.00000000E+00  0.00000000E+00  0.00000000E+00
  0.00000000E+00  0.00000000E+00  0.00000000E+00
  0.00000000E+00  0.00000000E+00  0.00000000E+00
  0.00000000E+00  0.00000000E+00  0.00000000E+00
  0.00000000E+00  0.00000000E+00  0.00000000E+00
  0.00000000E+00  0.00000000E+00  0.00000000E+00
  0.00000000E+00  0.00000000E+00  0.00000000E+00
  0.00000000E+00  0.00000000E+00  0.00000000E+00
  0.00000000E+00  0.00000000E+00  0.00000000E+00
  0.00000000E+00  0.00000000E+00  0.00000000E+00
  0.00000000E+00  0.00000000E+00  0.00000000E+00
  0.00000000E+00  0.00000000E+00  0.00000000E+00
  0.00000000E+00  0.00000000E+00  0.00000000E+00
  0.00000000E+00  0.00000000E+00  0.00000000E+00
  0.00000000E+00  0.00000000E+00  0.00000000E+00
  0.00000000E+00  0.00000000E+00  0.00000000E+00
  0.00000000E+00  0.00000000E+00  0.00000000E+00
  0.00000000E+00  0.00000000E+00  0.00000000E+00
  0.00000000E+00  0.00000000E+00  0.00000000E+00
  0.00000000E+00  0.00000000E+00  0.00000000E+00
  0.00000000E+00  0.00000000E+00  0.00000000E+00
  0.00000000E+00  0.00000000E+00  0.00000000E+00
  0.00000000E+00  0.00000000E+00  0.00000000E+00
  0.00000000E+00  0.00000000E+00  0.00000000E+00
  0.00000000E+00  0.00000000E+00  0.00000000E+00
  0.00000000E+00  0.00000000E+00  0.00000000E+00
  0.00000000E+00  0.00000000E+00  0.00000000E+00
  0.00000000E+00  0.00000000E+00  0.00000000E+00
  0.00000000E+00  0.00000000E+00  0.00000000E+00
  0.00000000E+00  0.00000000E+00  0.00000000E+00
  0.00000000E+00  0.00000000E+00  0.00000000E+00
  0.00000000E+00  0.00000000E+00  0.00000000E+00
  0.00000000E+00  0.00000000E+00  0.00000000E+00
  0.00000000E+00  0.00000000E+00  0.00000000E+00
  0.00000000E+00  0.00000000E+00  0.00000000E+00
  0.00000000E+00  0.00000000E+00  0.00000000E+00
  0.00000000E+00  0.00000000E+00  0.00000000E+00
  0.00000000E+00  0.00000000E+00  0.00000000E+00
  0.00000000E+00  0.00000000E+00  0.00000000E+00
  0.00000000E+00  0.00000000E+00  0.00000000E+00
  0.00000000E+00  0.00000000E+00  0.00000000E+00
  0.00000000E+00  0.00000000E+00  0.00000000E+00
  0.00000000E+00  0.00000000E+00  0.00000000E+00
  0.00000000E+00  0.00000000E+00  0.00000000E+00
  0.00000000E+00  0.00000000E+00  0.00000000E+00
  0.00000000E+00  0.00000000E+00  0.00000000E+00
  0.00000000E+00  0.00000000E+00  0.00000000E+00
  0.00000000E+00  0.00000000E+00  0.00000000E+00
  0.00000000E+00  0.00000000E+00  0.00000000E+00
  0.00000000E+00  0.00000000E+00  0.00000000E+00
  0.00000000E+00  0.00000000E+00  0.00000000E+00
  0.00000000E+00  0.00000000E+00  0.00000000E+00
  0.00000000E+00  0.00000000E+00  0.00000000E+00
  0.00000000E+00  0.00000000E+00  0.00000000E+00
  0.00000000E+00  0.00000000E+00  0.00000000E+00
  0.00000000E+00  0.00000000E+00  0.00000000E+00
  0.00000000E+00  0.00000000E+00  0.00000000E+00
  0.00000000E+00  0.00000000E+00  0.00000000E+00
  0.00000000E+00  0.00000000E+00  0.00000000E+00
  0.00000000E+00  0.00000000E+00  0.00000000E+00
  0.00000000E+00  0.00000000E+00  0.00000000E+00
  0.00000000E+00  0.00000000E+00  0.00000000E+00
  0.00000000E+00  0.00000000E+00  0.00000000E+00
  0.00000000E+00  0.00000000E+00  0.00000000E+00
  0.00000000E+00  0.00000000E+00  0.00000000E+00
  0.00000000E+00  0.00000000E+00  0.00000000E+00
  0.00000000E+00  0.00000000E+00  0.00000000E+00
  0.00000000E+00  0.00000000E+00  0.00000000E+00
  0.00000000E+00  0.00000000E+00  0.00000000E+00
