generated by phonopy                    
    1.000000000000000     
    36.3063614115161712    0.0000000000000000   -0.0000000000000000
    -0.0000000000000000    5.0861729268821199    0.0000000000000001
     0.0000000000000000   -2.5430864634410599    4.4047549627205669
   Co   Ru
    64     8
Direct
  0.0301691117239407  0.3333333333333286  0.1666666666666714
  0.0301691117239407  0.3333333333333286  0.6666666666666714
  0.0301691117239407  0.8333333333333286  0.1666666666666714
  0.0301691117239407  0.8333333333333286  0.6666666666666714
  0.0848668344597290  0.1666666666666714  0.3333333333333286
  0.0848668344597290  0.1666666666666714  0.8333333333333286
  0.0848668344597290  0.6666666666666714  0.3333333333333286
  0.0848668344597290  0.6666666666666714  0.8333333333333286
  0.1398519317493911  0.3333333333333286  0.1666666666666714
  0.1398519317493911  0.3333333333333286  0.6666666666666714
  0.1398519317493911  0.8333333333333286  0.1666666666666714
  0.1398519317493911  0.8333333333333286  0.6666666666666714
  0.1946251633882632  0.1666666666666714  0.3333333333333286
  0.1946251633882632  0.1666666666666714  0.8333333333333286
  0.1946251633882632  0.6666666666666714  0.3333333333333286
  0.1946251633882632  0.6666666666666714  0.8333333333333286
  0.2498192810561797  0.3333333333333286  0.1666666666666714
  0.2498192810561797  0.3333333333333286  0.6666666666666714
  0.2498192810561797  0.8333333333333286  0.1666666666666714
  0.2498192810561797  0.8333333333333286  0.6666666666666714
  0.3045925126950517  0.1666666666666714  0.3333333333333286
  0.3045925126950517  0.1666666666666714  0.8333333333333286
  0.3045925126950517  0.6666666666666714  0.3333333333333286
  0.3045925126950517  0.6666666666666714  0.8333333333333286
  0.3595776099847210  0.3333333333333286  0.1666666666666714
  0.3595776099847210  0.3333333333333286  0.6666666666666714
  0.3595776099847210  0.8333333333333286  0.1666666666666714
  0.3595776099847210  0.8333333333333286  0.6666666666666714
  0.4142753327204951  0.1666666666666714  0.3333333333333286
  0.4142753327204951  0.1666666666666714  0.8333333333333286
  0.4142753327204951  0.6666666666666714  0.3333333333333286
  0.4142753327204951  0.6666666666666714  0.8333333333333286
  0.5301691117239479  0.1666666666666714  0.3333333333333286
  0.5301691117239479  0.1666666666666714  0.8333333333333286
  0.5301691117239479  0.6666666666666714  0.3333333333333286
  0.5301691117239479  0.6666666666666714  0.8333333333333286
  0.5848668344597290  0.3333333333333286  0.1666666666666714
  0.5848668344597290  0.3333333333333286  0.6666666666666714
  0.5848668344597290  0.8333333333333286  0.1666666666666714
  0.5848668344597290  0.8333333333333286  0.6666666666666714
  0.6398519317493914  0.1666666666666714  0.3333333333333286
  0.6398519317493914  0.1666666666666714  0.8333333333333286
  0.6398519317493914  0.6666666666666714  0.3333333333333286
  0.6398519317493914  0.6666666666666714  0.8333333333333286
  0.6946251633882632  0.3333333333333286  0.1666666666666714
  0.6946251633882632  0.3333333333333286  0.6666666666666714
  0.6946251633882632  0.8333333333333286  0.1666666666666714
  0.6946251633882632  0.8333333333333286  0.6666666666666714
  0.7498192810561797  0.1666666666666714  0.3333333333333286
  0.7498192810561797  0.1666666666666714  0.8333333333333286
  0.7498192810561797  0.6666666666666714  0.3333333333333286
  0.7498192810561797  0.6666666666666714  0.8333333333333286
  0.8045925126950515  0.3333333333333286  0.1666666666666714
  0.8045925126950515  0.3333333333333286  0.6666666666666714
  0.8045925126950515  0.8333333333333286  0.1666666666666714
  0.8045925126950515  0.8333333333333286  0.6666666666666714
  0.8595776099847210  0.1666666666666714  0.3333333333333286
  0.8595776099847210  0.1666666666666714  0.8333333333333286
  0.8595776099847210  0.6666666666666714  0.3333333333333286
  0.8595776099847210  0.6666666666666714  0.8333333333333286
  0.9142753327204950  0.3333333333333286  0.1666666666666714
  0.9142753327204950  0.3333333333333286  0.6666666666666714
  0.9142753327204950  0.8333333333333286  0.1666666666666714
  0.9142753327204950  0.8333333333333286  0.6666666666666714
  0.4722222222222214  0.3333333333333286  0.1666666666666714
  0.4722222222222214  0.3333333333333286  0.6666666666666714
  0.4722222222222214  0.8333333333333286  0.1666666666666714
  0.4722222222222214  0.8333333333333286  0.6666666666666714
  0.9722222222222214  0.1666666666666714  0.3333333333333286
  0.9722222222222214  0.1666666666666714  0.8333333333333286
  0.9722222222222214  0.6666666666666714  0.3333333333333286
  0.9722222222222214  0.6666666666666714  0.8333333333333286
 
  0.00000000E+00  0.00000000E+00  0.00000000E+00
  0.00000000E+00  0.00000000E+00  0.00000000E+00
  0.00000000E+00  0.00000000E+00  0.00000000E+00
  0.00000000E+00  0.00000000E+00  0.00000000E+00
  0.00000000E+00  0.00000000E+00  0.00000000E+00
  0.00000000E+00  0.00000000E+00  0.00000000E+00
  0.00000000E+00  0.00000000E+00  0.00000000E+00
  0.00000000E+00  0.00000000E+00  0.00000000E+00
  0.00000000E+00  0.00000000E+00  0.00000000E+00
  0.00000000E+00  0.00000000E+00  0.00000000E+00
  0.00000000E+00  0.00000000E+00  0.00000000E+00
  0.00000000E+00  0.00000000E+00  0.00000000E+00
  0.00000000E+00  0.00000000E+00  0.00000000E+00
  0.00000000E+00  0.00000000E+00  0.00000000E+00
  0.00000000E+00  0.00000000E+00  0.00000000E+00
  0.00000000E+00  0.00000000E+00  0.00000000E+00
  0.00000000E+00  0.00000000E+00  0.00000000E+00
  0.00000000E+00  0.00000000E+00  0.00000000E+00
  0.00000000E+00  0.00000000E+00  0.00000000E+00
  0.00000000E+00  0.00000000E+00  0.00000000E+00
  0.00000000E+00  0.00000000E+00  0.00000000E+00
  0.00000000E+00  0.00000000E+00  0.00000000E+00
  0.00000000E+00  0.00000000E+00  0.00000000E+00
  0.00000000E+00  0.00000000E+00  0.00000000E+00
  0.00000000E+00  0.00000000E+00  0.00000000E+00
  0.00000000E+00  0.00000000E+00  0.00000000E+00
  0.00000000E+00  0.00000000E+00  0.00000000E+00
  0.00000000E+00  0.00000000E+00  0.00000000E+00
  0.00000000E+00  0.00000000E+00  0.00000000E+00
  0.00000000E+00  0.00000000E+00  0.00000000E+00
  0.00000000E+00  0.00000000E+00  0.00000000E+00
  0.00000000E+00  0.00000000E+00  0.00000000E+00
  0.00000000E+00  0.00000000E+00  0.00000000E+00
  0.00000000E+00  0.00000000E+00  0.00000000E+00
  0.00000000E+00  0.00000000E+00  0.00000000E+00
  0.00000000E+00  0.00000000E+00  0.00000000E+00
  0.00000000E+00  0.00000000E+00  0.00000000E+00
  0.00000000E+00  0.00000000E+00  0.00000000E+00
  0.00000000E+00  0.00000000E+00  0.00000000E+00
  0.00000000E+00  0.00000000E+00  0.00000000E+00
  0.00000000E+00  0.00000000E+00  0.00000000E+00
  0.00000000E+00  0.00000000E+00  0.00000000E+00
  0.00000000E+00  0.00000000E+00  0.00000000E+00
  0.00000000E+00  0.00000000E+00  0.00000000E+00
  0.00000000E+00  0.00000000E+00  0.00000000E+00
  0.00000000E+00  0.00000000E+00  0.00000000E+00
  0.00000000E+00  0.00000000E+00  0.00000000E+00
  0.00000000E+00  0.00000000E+00  0.00000000E+00
  0.00000000E+00  0.00000000E+00  0.00000000E+00
  0.00000000E+00  0.00000000E+00  0.00000000E+00
  0.00000000E+00  0.00000000E+00  0.00000000E+00
  0.00000000E+00  0.00000000E+00  0.00000000E+00
  0.00000000E+00  0.00000000E+00  0.00000000E+00
  0.00000000E+00  0.00000000E+00  0.00000000E+00
  0.00000000E+00  0.00000000E+00  0.00000000E+00
  0.00000000E+00  0.00000000E+00  0.00000000E+00
  0.00000000E+00  0.00000000E+00  0.00000000E+00
  0.00000000E+00  0.00000000E+00  0.00000000E+00
  0.00000000E+00  0.00000000E+00  0.00000000E+00
  0.00000000E+00  0.00000000E+00  0.00000000E+00
  0.00000000E+00  0.00000000E+00  0.00000000E+00
  0.00000000E+00  0.00000000E+00  0.00000000E+00
  0.00000000E+00  0.00000000E+00  0.00000000E+00
  0.00000000E+00  0.00000000E+00  0.00000000E+00
  0.00000000E+00  0.00000000E+00  0.00000000E+00
  0.00000000E+00  0.00000000E+00  0.00000000E+00
  0.00000000E+00  0.00000000E+00  0.00000000E+00
  0.00000000E+00  0.00000000E+00  0.00000000E+00
  0.00000000E+00  0.00000000E+00  0.00000000E+00
  0.00000000E+00  0.00000000E+00  0.00000000E+00
  0.00000000E+00  0.00000000E+00  0.00000000E+00
  0.00000000E+00  0.00000000E+00  0.00000000E+00
