generated by phonopy                    
    1.003322283542089     
    36.3057643828180474   -0.0000000000000000   -0.0000000000000000
    -0.0000000000000000    5.0862147463943783    0.0000000000000001
     0.0000000000000000   -2.5431073731971892    4.4047911794805561
   Co   Ru
    64     8
Direct
  0.0301191264701377  0.3333333333333286  0.1666666666666714
  0.0301191264701377  0.3333333333333286  0.6666666666666714
  0.0301191264701377  0.8333333333333286  0.1666666666666714
  0.0301191264701377  0.8333333333333286  0.6666666666666714
  0.0848393023672085  0.1666666666666714  0.3333333333333286
  0.0848393023672085  0.1666666666666714  0.8333333333333286
  0.0848393023672085  0.6666666666666714  0.3333333333333286
  0.0848393023672085  0.6666666666666714  0.8333333333333286
  0.1398431292208755  0.3333333333333286  0.1666666666666714
  0.1398431292208755  0.3333333333333286  0.6666666666666714
  0.1398431292208755  0.8333333333333286  0.1666666666666714
  0.1398431292208755  0.8333333333333286  0.6666666666666714
  0.1946176459858870  0.1666666666666714  0.3333333333333286
  0.1946176459858870  0.1666666666666714  0.8333333333333286
  0.1946176459858870  0.6666666666666714  0.3333333333333286
  0.1946176459858870  0.6666666666666714  0.8333333333333286
  0.2498267984585630  0.3333333333333286  0.1666666666666714
  0.2498267984585630  0.3333333333333286  0.6666666666666714
  0.2498267984585630  0.8333333333333286  0.1666666666666714
  0.2498267984585630  0.8333333333333286  0.6666666666666714
  0.3046013152235674  0.1666666666666714  0.3333333333333286
  0.3046013152235674  0.1666666666666714  0.8333333333333286
  0.3046013152235674  0.6666666666666714  0.3333333333333286
  0.3046013152235674  0.6666666666666714  0.8333333333333286
  0.3596051420772414  0.3333333333333286  0.1666666666666714
  0.3596051420772414  0.3333333333333286  0.6666666666666714
  0.3596051420772414  0.8333333333333286  0.1666666666666714
  0.3596051420772414  0.8333333333333286  0.6666666666666714
  0.4143253179742979  0.1666666666666714  0.3333333333333286
  0.4143253179742979  0.1666666666666714  0.8333333333333286
  0.4143253179742979  0.6666666666666714  0.3333333333333286
  0.4143253179742979  0.6666666666666714  0.8333333333333286
  0.5301191264701449  0.1666666666666714  0.3333333333333286
  0.5301191264701449  0.1666666666666714  0.8333333333333286
  0.5301191264701449  0.6666666666666714  0.3333333333333286
  0.5301191264701449  0.6666666666666714  0.8333333333333286
  0.5848393023672085  0.3333333333333286  0.1666666666666714
  0.5848393023672085  0.3333333333333286  0.6666666666666714
  0.5848393023672085  0.8333333333333286  0.1666666666666714
  0.5848393023672085  0.8333333333333286  0.6666666666666714
  0.6398431292208754  0.1666666666666714  0.3333333333333286
  0.6398431292208754  0.1666666666666714  0.8333333333333286
  0.6398431292208754  0.6666666666666714  0.3333333333333286
  0.6398431292208754  0.6666666666666714  0.8333333333333286
  0.6946176459858869  0.3333333333333286  0.1666666666666714
  0.6946176459858869  0.3333333333333286  0.6666666666666714
  0.6946176459858869  0.8333333333333286  0.1666666666666714
  0.6946176459858869  0.8333333333333286  0.6666666666666714
  0.7498267984585559  0.1666666666666714  0.3333333333333286
  0.7498267984585559  0.1666666666666714  0.8333333333333286
  0.7498267984585559  0.6666666666666714  0.3333333333333286
  0.7498267984585559  0.6666666666666714  0.8333333333333286
  0.8046013152235675  0.3333333333333286  0.1666666666666714
  0.8046013152235675  0.3333333333333286  0.6666666666666714
  0.8046013152235675  0.8333333333333286  0.1666666666666714
  0.8046013152235675  0.8333333333333286  0.6666666666666714
  0.8596051420772415  0.1666666666666714  0.3333333333333286
  0.8596051420772415  0.1666666666666714  0.8333333333333286
  0.8596051420772415  0.6666666666666714  0.3333333333333286
  0.8596051420772415  0.6666666666666714  0.8333333333333286
  0.9143253179742979  0.3333333333333286  0.1666666666666714
  0.9143253179742979  0.3333333333333286  0.6666666666666714
  0.9143253179742979  0.8333333333333286  0.1666666666666714
  0.9143253179742979  0.8333333333333286  0.6666666666666714
  0.4722222222222214  0.3333333333333286  0.1666666666666714
  0.4722222222222214  0.3333333333333286  0.6666666666666714
  0.4722222222222214  0.8333333333333286  0.1666666666666714
  0.4722222222222214  0.8333333333333286  0.6666666666666714
  0.9722222222222214  0.1666666666666714  0.3333333333333286
  0.9722222222222214  0.1666666666666714  0.8333333333333286
  0.9722222222222214  0.6666666666666714  0.3333333333333286
  0.9722222222222214  0.6666666666666714  0.8333333333333286
 
  0.00000000E+00  0.00000000E+00  0.00000000E+00
  0.00000000E+00  0.00000000E+00  0.00000000E+00
  0.00000000E+00  0.00000000E+00  0.00000000E+00
  0.00000000E+00  0.00000000E+00  0.00000000E+00
  0.00000000E+00  0.00000000E+00  0.00000000E+00
  0.00000000E+00  0.00000000E+00  0.00000000E+00
  0.00000000E+00  0.00000000E+00  0.00000000E+00
  0.00000000E+00  0.00000000E+00  0.00000000E+00
  0.00000000E+00  0.00000000E+00  0.00000000E+00
  0.00000000E+00  0.00000000E+00  0.00000000E+00
  0.00000000E+00  0.00000000E+00  0.00000000E+00
  0.00000000E+00  0.00000000E+00  0.00000000E+00
  0.00000000E+00  0.00000000E+00  0.00000000E+00
  0.00000000E+00  0.00000000E+00  0.00000000E+00
  0.00000000E+00  0.00000000E+00  0.00000000E+00
  0.00000000E+00  0.00000000E+00  0.00000000E+00
  0.00000000E+00  0.00000000E+00  0.00000000E+00
  0.00000000E+00  0.00000000E+00  0.00000000E+00
  0.00000000E+00  0.00000000E+00  0.00000000E+00
  0.00000000E+00  0.00000000E+00  0.00000000E+00
  0.00000000E+00  0.00000000E+00  0.00000000E+00
  0.00000000E+00  0.00000000E+00  0.00000000E+00
  0.00000000E+00  0.00000000E+00  0.00000000E+00
  0.00000000E+00  0.00000000E+00  0.00000000E+00
  0.00000000E+00  0.00000000E+00  0.00000000E+00
  0.00000000E+00  0.00000000E+00  0.00000000E+00
  0.00000000E+00  0.00000000E+00  0.00000000E+00
  0.00000000E+00  0.00000000E+00  0.00000000E+00
  0.00000000E+00  0.00000000E+00  0.00000000E+00
  0.00000000E+00  0.00000000E+00  0.00000000E+00
  0.00000000E+00  0.00000000E+00  0.00000000E+00
  0.00000000E+00  0.00000000E+00  0.00000000E+00
  0.00000000E+00  0.00000000E+00  0.00000000E+00
  0.00000000E+00  0.00000000E+00  0.00000000E+00
  0.00000000E+00  0.00000000E+00  0.00000000E+00
  0.00000000E+00  0.00000000E+00  0.00000000E+00
  0.00000000E+00  0.00000000E+00  0.00000000E+00
  0.00000000E+00  0.00000000E+00  0.00000000E+00
  0.00000000E+00  0.00000000E+00  0.00000000E+00
  0.00000000E+00  0.00000000E+00  0.00000000E+00
  0.00000000E+00  0.00000000E+00  0.00000000E+00
  0.00000000E+00  0.00000000E+00  0.00000000E+00
  0.00000000E+00  0.00000000E+00  0.00000000E+00
  0.00000000E+00  0.00000000E+00  0.00000000E+00
  0.00000000E+00  0.00000000E+00  0.00000000E+00
  0.00000000E+00  0.00000000E+00  0.00000000E+00
  0.00000000E+00  0.00000000E+00  0.00000000E+00
  0.00000000E+00  0.00000000E+00  0.00000000E+00
  0.00000000E+00  0.00000000E+00  0.00000000E+00
  0.00000000E+00  0.00000000E+00  0.00000000E+00
  0.00000000E+00  0.00000000E+00  0.00000000E+00
  0.00000000E+00  0.00000000E+00  0.00000000E+00
  0.00000000E+00  0.00000000E+00  0.00000000E+00
  0.00000000E+00  0.00000000E+00  0.00000000E+00
  0.00000000E+00  0.00000000E+00  0.00000000E+00
  0.00000000E+00  0.00000000E+00  0.00000000E+00
  0.00000000E+00  0.00000000E+00  0.00000000E+00
  0.00000000E+00  0.00000000E+00  0.00000000E+00
  0.00000000E+00  0.00000000E+00  0.00000000E+00
  0.00000000E+00  0.00000000E+00  0.00000000E+00
  0.00000000E+00  0.00000000E+00  0.00000000E+00
  0.00000000E+00  0.00000000E+00  0.00000000E+00
  0.00000000E+00  0.00000000E+00  0.00000000E+00
  0.00000000E+00  0.00000000E+00  0.00000000E+00
  0.00000000E+00  0.00000000E+00  0.00000000E+00
  0.00000000E+00  0.00000000E+00  0.00000000E+00
  0.00000000E+00  0.00000000E+00  0.00000000E+00
  0.00000000E+00  0.00000000E+00  0.00000000E+00
  0.00000000E+00  0.00000000E+00  0.00000000E+00
  0.00000000E+00  0.00000000E+00  0.00000000E+00
  0.00000000E+00  0.00000000E+00  0.00000000E+00
  0.00000000E+00  0.00000000E+00  0.00000000E+00
