generated by phonopy                    
    1.024813293769587     
    51.7372227688147532   -0.0000000000000000    0.0000000000000000
    -0.0000000000000000    5.0883915788952887   -0.0000000000000001
     0.0000000000000000   -2.5441957894476439    4.4066763717261175
   Co   Ru
    80    24
Direct
  0.0237201313424871  0.3333333333333286  0.1666666666666714
  0.0237201313424871  0.3333333333333286  0.6666666666666714
  0.0237201313424871  0.8333333333333286  0.1666666666666714
  0.0237201313424871  0.8333333333333286  0.6666666666666714
  0.0609923089575050  0.1666666666666714  0.3333333333333286
  0.0609923089575050  0.1666666666666714  0.8333333333333286
  0.0609923089575050  0.6666666666666714  0.3333333333333286
  0.0609923089575050  0.6666666666666714  0.8333333333333286
  0.0985533510432424  0.3333333333333286  0.1666666666666714
  0.0985533510432424  0.3333333333333286  0.6666666666666714
  0.0985533510432424  0.8333333333333286  0.1666666666666714
  0.0985533510432424  0.8333333333333286  0.6666666666666714
  0.1360587674590378  0.1666666666666714  0.3333333333333286
  0.1360587674590378  0.1666666666666714  0.8333333333333286
  0.1360587674590378  0.6666666666666714  0.3333333333333286
  0.1360587674590378  0.6666666666666714  0.8333333333333286
  0.1735268592435553  0.3333333333333286  0.1666666666666714
  0.1735268592435553  0.3333333333333286  0.6666666666666714
  0.1735268592435553  0.8333333333333286  0.1666666666666714
  0.1735268592435553  0.8333333333333286  0.6666666666666714
  0.2111139520233060  0.1666666666666714  0.3333333333333286
  0.2111139520233060  0.1666666666666714  0.8333333333333286
  0.2111139520233060  0.6666666666666714  0.3333333333333286
  0.2111139520233060  0.6666666666666714  0.8333333333333286
  0.2485734992278653  0.3333333333333286  0.1666666666666714
  0.2485734992278653  0.3333333333333286  0.6666666666666714
  0.2485734992278653  0.8333333333333286  0.1666666666666714
  0.2485734992278653  0.8333333333333286  0.6666666666666714
  0.2860726311660280  0.1666666666666714  0.3333333333333286
  0.2860726311660280  0.1666666666666714  0.8333333333333286
  0.2860726311660280  0.6666666666666714  0.3333333333333286
  0.2860726311660280  0.6666666666666714  0.8333333333333286
  0.3236197275391371  0.3333333333333286  0.1666666666666714
  0.3236197275391371  0.3333333333333286  0.6666666666666714
  0.3236197275391371  0.8333333333333286  0.1666666666666714
  0.3236197275391371  0.8333333333333286  0.6666666666666714
  0.3608794473132832  0.1666666666666714  0.3333333333333286
  0.3608794473132832  0.1666666666666714  0.8333333333333286
  0.3608794473132832  0.6666666666666714  0.3333333333333286
  0.3608794473132832  0.6666666666666714  0.8333333333333286
  0.5237201313424865  0.1666666666666714  0.3333333333333286
  0.5237201313424865  0.1666666666666714  0.8333333333333286
  0.5237201313424865  0.6666666666666714  0.3333333333333286
  0.5237201313424865  0.6666666666666714  0.8333333333333286
  0.5609923089575038  0.3333333333333286  0.1666666666666714
  0.5609923089575038  0.3333333333333286  0.6666666666666714
  0.5609923089575038  0.8333333333333286  0.1666666666666714
  0.5609923089575038  0.8333333333333286  0.6666666666666714
  0.5985533510432351  0.1666666666666714  0.3333333333333286
  0.5985533510432351  0.1666666666666714  0.8333333333333286
  0.5985533510432351  0.6666666666666714  0.3333333333333286
  0.5985533510432351  0.6666666666666714  0.8333333333333286
  0.6360587674590309  0.3333333333333286  0.1666666666666714
  0.6360587674590309  0.3333333333333286  0.6666666666666714
  0.6360587674590309  0.8333333333333286  0.1666666666666714
  0.6360587674590309  0.8333333333333286  0.6666666666666714
  0.6735268592435418  0.1666666666666714  0.3333333333333286
  0.6735268592435418  0.1666666666666714  0.8333333333333286
  0.6735268592435418  0.6666666666666714  0.3333333333333286
  0.6735268592435418  0.6666666666666714  0.8333333333333286
  0.7111139520233056  0.3333333333333286  0.1666666666666714
  0.7111139520233056  0.3333333333333286  0.6666666666666714
  0.7111139520233056  0.8333333333333286  0.1666666666666714
  0.7111139520233056  0.8333333333333286  0.6666666666666714
  0.7485734992278716  0.1666666666666714  0.3333333333333286
  0.7485734992278716  0.1666666666666714  0.8333333333333286
  0.7485734992278716  0.6666666666666714  0.3333333333333286
  0.7485734992278716  0.6666666666666714  0.8333333333333286
  0.7860726311660348  0.3333333333333286  0.1666666666666714
  0.7860726311660348  0.3333333333333286  0.6666666666666714
  0.7860726311660348  0.8333333333333286  0.1666666666666714
  0.7860726311660348  0.8333333333333286  0.6666666666666714
  0.8236197275391367  0.1666666666666714  0.3333333333333286
  0.8236197275391367  0.1666666666666714  0.8333333333333286
  0.8236197275391367  0.6666666666666714  0.3333333333333286
  0.8236197275391367  0.6666666666666714  0.8333333333333286
  0.8608794473132826  0.3333333333333286  0.1666666666666714
  0.8608794473132826  0.3333333333333286  0.6666666666666714
  0.8608794473132826  0.8333333333333286  0.1666666666666714
  0.8608794473132826  0.8333333333333286  0.6666666666666714
  0.4010843478375559  0.3333333333333286  0.1666666666666714
  0.4010843478375559  0.3333333333333286  0.6666666666666714
  0.4010843478375559  0.8333333333333286  0.1666666666666714
  0.4010843478375559  0.8333333333333286  0.6666666666666714
  0.4422961187128878  0.1666666666666714  0.3333333333333286
  0.4422961187128878  0.1666666666666714  0.8333333333333286
  0.4422961187128878  0.6666666666666714  0.3333333333333286
  0.4422961187128878  0.6666666666666714  0.8333333333333286
  0.4835088581341222  0.3333333333333286  0.1666666666666714
  0.4835088581341222  0.3333333333333286  0.6666666666666714
  0.4835088581341222  0.8333333333333286  0.1666666666666714
  0.4835088581341222  0.8333333333333286  0.6666666666666714
  0.9010843478375554  0.1666666666666714  0.3333333333333286
  0.9010843478375554  0.1666666666666714  0.8333333333333286
  0.9010843478375554  0.6666666666666714  0.3333333333333286
  0.9010843478375554  0.6666666666666714  0.8333333333333286
  0.9422961187128880  0.3333333333333286  0.1666666666666714
  0.9422961187128880  0.3333333333333286  0.6666666666666714
  0.9422961187128880  0.8333333333333286  0.1666666666666714
  0.9422961187128880  0.8333333333333286  0.6666666666666714
  0.9835088581341233  0.1666666666666714  0.3333333333333286
  0.9835088581341233  0.1666666666666714  0.8333333333333286
  0.9835088581341233  0.6666666666666714  0.3333333333333286
  0.9835088581341233  0.6666666666666714  0.8333333333333286
 
  0.00000000E+00  0.00000000E+00  0.00000000E+00
  0.00000000E+00  0.00000000E+00  0.00000000E+00
  0.00000000E+00  0.00000000E+00  0.00000000E+00
  0.00000000E+00  0.00000000E+00  0.00000000E+00
  0.00000000E+00  0.00000000E+00  0.00000000E+00
  0.00000000E+00  0.00000000E+00  0.00000000E+00
  0.00000000E+00  0.00000000E+00  0.00000000E+00
  0.00000000E+00  0.00000000E+00  0.00000000E+00
  0.00000000E+00  0.00000000E+00  0.00000000E+00
  0.00000000E+00  0.00000000E+00  0.00000000E+00
  0.00000000E+00  0.00000000E+00  0.00000000E+00
  0.00000000E+00  0.00000000E+00  0.00000000E+00
  0.00000000E+00  0.00000000E+00  0.00000000E+00
  0.00000000E+00  0.00000000E+00  0.00000000E+00
  0.00000000E+00  0.00000000E+00  0.00000000E+00
  0.00000000E+00  0.00000000E+00  0.00000000E+00
  0.00000000E+00  0.00000000E+00  0.00000000E+00
  0.00000000E+00  0.00000000E+00  0.00000000E+00
  0.00000000E+00  0.00000000E+00  0.00000000E+00
  0.00000000E+00  0.00000000E+00  0.00000000E+00
  0.00000000E+00  0.00000000E+00  0.00000000E+00
  0.00000000E+00  0.00000000E+00  0.00000000E+00
  0.00000000E+00  0.00000000E+00  0.00000000E+00
  0.00000000E+00  0.00000000E+00  0.00000000E+00
  0.00000000E+00  0.00000000E+00  0.00000000E+00
  0.00000000E+00  0.00000000E+00  0.00000000E+00
  0.00000000E+00  0.00000000E+00  0.00000000E+00
  0.00000000E+00  0.00000000E+00  0.00000000E+00
  0.00000000E+00  0.00000000E+00  0.00000000E+00
  0.00000000E+00  0.00000000E+00  0.00000000E+00
  0.00000000E+00  0.00000000E+00  0.00000000E+00
  0.00000000E+00  0.00000000E+00  0.00000000E+00
  0.00000000E+00  0.00000000E+00  0.00000000E+00
  0.00000000E+00  0.00000000E+00  0.00000000E+00
  0.00000000E+00  0.00000000E+00  0.00000000E+00
  0.00000000E+00  0.00000000E+00  0.00000000E+00
  0.00000000E+00  0.00000000E+00  0.00000000E+00
  0.00000000E+00  0.00000000E+00  0.00000000E+00
  0.00000000E+00  0.00000000E+00  0.00000000E+00
  0.00000000E+00  0.00000000E+00  0.00000000E+00
  0.00000000E+00  0.00000000E+00  0.00000000E+00
  0.00000000E+00  0.00000000E+00  0.00000000E+00
  0.00000000E+00  0.00000000E+00  0.00000000E+00
  0.00000000E+00  0.00000000E+00  0.00000000E+00
  0.00000000E+00  0.00000000E+00  0.00000000E+00
  0.00000000E+00  0.00000000E+00  0.00000000E+00
  0.00000000E+00  0.00000000E+00  0.00000000E+00
  0.00000000E+00  0.00000000E+00  0.00000000E+00
  0.00000000E+00  0.00000000E+00  0.00000000E+00
  0.00000000E+00  0.00000000E+00  0.00000000E+00
  0.00000000E+00  0.00000000E+00  0.00000000E+00
  0.00000000E+00  0.00000000E+00  0.00000000E+00
  0.00000000E+00  0.00000000E+00  0.00000000E+00
  0.00000000E+00  0.00000000E+00  0.00000000E+00
  0.00000000E+00  0.00000000E+00  0.00000000E+00
  0.00000000E+00  0.00000000E+00  0.00000000E+00
  0.00000000E+00  0.00000000E+00  0.00000000E+00
  0.00000000E+00  0.00000000E+00  0.00000000E+00
  0.00000000E+00  0.00000000E+00  0.00000000E+00
  0.00000000E+00  0.00000000E+00  0.00000000E+00
  0.00000000E+00  0.00000000E+00  0.00000000E+00
  0.00000000E+00  0.00000000E+00  0.00000000E+00
  0.00000000E+00  0.00000000E+00  0.00000000E+00
  0.00000000E+00  0.00000000E+00  0.00000000E+00
  0.00000000E+00  0.00000000E+00  0.00000000E+00
  0.00000000E+00  0.00000000E+00  0.00000000E+00
  0.00000000E+00  0.00000000E+00  0.00000000E+00
  0.00000000E+00  0.00000000E+00  0.00000000E+00
  0.00000000E+00  0.00000000E+00  0.00000000E+00
  0.00000000E+00  0.00000000E+00  0.00000000E+00
  0.00000000E+00  0.00000000E+00  0.00000000E+00
  0.00000000E+00  0.00000000E+00  0.00000000E+00
  0.00000000E+00  0.00000000E+00  0.00000000E+00
  0.00000000E+00  0.00000000E+00  0.00000000E+00
  0.00000000E+00  0.00000000E+00  0.00000000E+00
  0.00000000E+00  0.00000000E+00  0.00000000E+00
  0.00000000E+00  0.00000000E+00  0.00000000E+00
  0.00000000E+00  0.00000000E+00  0.00000000E+00
  0.00000000E+00  0.00000000E+00  0.00000000E+00
  0.00000000E+00  0.00000000E+00  0.00000000E+00
  0.00000000E+00  0.00000000E+00  0.00000000E+00
  0.00000000E+00  0.00000000E+00  0.00000000E+00
  0.00000000E+00  0.00000000E+00  0.00000000E+00
  0.00000000E+00  0.00000000E+00  0.00000000E+00
  0.00000000E+00  0.00000000E+00  0.00000000E+00
  0.00000000E+00  0.00000000E+00  0.00000000E+00
  0.00000000E+00  0.00000000E+00  0.00000000E+00
  0.00000000E+00  0.00000000E+00  0.00000000E+00
  0.00000000E+00  0.00000000E+00  0.00000000E+00
  0.00000000E+00  0.00000000E+00  0.00000000E+00
  0.00000000E+00  0.00000000E+00  0.00000000E+00
  0.00000000E+00  0.00000000E+00  0.00000000E+00
  0.00000000E+00  0.00000000E+00  0.00000000E+00
  0.00000000E+00  0.00000000E+00  0.00000000E+00
  0.00000000E+00  0.00000000E+00  0.00000000E+00
  0.00000000E+00  0.00000000E+00  0.00000000E+00
  0.00000000E+00  0.00000000E+00  0.00000000E+00
  0.00000000E+00  0.00000000E+00  0.00000000E+00
  0.00000000E+00  0.00000000E+00  0.00000000E+00
  0.00000000E+00  0.00000000E+00  0.00000000E+00
  0.00000000E+00  0.00000000E+00  0.00000000E+00
  0.00000000E+00  0.00000000E+00  0.00000000E+00
  0.00000000E+00  0.00000000E+00  0.00000000E+00
  0.00000000E+00  0.00000000E+00  0.00000000E+00
