generated by phonopy                    
    1.011238009326129     
    51.7060586446175350   -0.0000000000000000   -0.0000000000000000
    -0.0000000000000000    5.0899247781419348    0.0000000000000006
    -0.0000000000000000   -2.5449623890709665    4.4080041612227889
   Co   Ru
    80    24
Direct
  0.0240131141966302  0.3333333333333286  0.1666666666666714
  0.0240131141966302  0.3333333333333286  0.6666666666666714
  0.0240131141966302  0.8333333333333286  0.1666666666666714
  0.0240131141966302  0.8333333333333286  0.6666666666666714
  0.0612078745404150  0.1666666666666714  0.3333333333333286
  0.0612078745404150  0.1666666666666714  0.8333333333333286
  0.0612078745404150  0.6666666666666714  0.3333333333333286
  0.0612078745404150  0.6666666666666714  0.8333333333333286
  0.0986516278971094  0.3333333333333286  0.1666666666666714
  0.0986516278971094  0.3333333333333286  0.6666666666666714
  0.0986516278971094  0.8333333333333286  0.1666666666666714
  0.0986516278971094  0.8333333333333286  0.6666666666666714
  0.1361333288640937  0.1666666666666714  0.3333333333333286
  0.1361333288640937  0.1666666666666714  0.8333333333333286
  0.1361333288640937  0.6666666666666714  0.3333333333333286
  0.1361333288640937  0.6666666666666714  0.8333333333333286
  0.1735364263005129  0.3333333333333286  0.1666666666666714
  0.1735364263005129  0.3333333333333286  0.6666666666666714
  0.1735364263005129  0.8333333333333286  0.1666666666666714
  0.1735364263005129  0.8333333333333286  0.6666666666666714
  0.2110916119372426  0.1666666666666714  0.3333333333333286
  0.2110916119372426  0.1666666666666714  0.8333333333333286
  0.2110916119372426  0.6666666666666714  0.3333333333333286
  0.2110916119372426  0.6666666666666714  0.8333333333333286
  0.2484936740898248  0.3333333333333286  0.1666666666666714
  0.2484936740898248  0.3333333333333286  0.6666666666666714
  0.2484936740898248  0.8333333333333286  0.1666666666666714
  0.2484936740898248  0.8333333333333286  0.6666666666666714
  0.2859678117678944  0.1666666666666714  0.3333333333333286
  0.2859678117678944  0.1666666666666714  0.8333333333333286
  0.2859678117678944  0.6666666666666714  0.3333333333333286
  0.2859678117678944  0.6666666666666714  0.8333333333333286
  0.3234041832275281  0.3333333333333286  0.1666666666666714
  0.3234041832275281  0.3333333333333286  0.6666666666666714
  0.3234041832275281  0.8333333333333286  0.1666666666666714
  0.3234041832275281  0.8333333333333286  0.6666666666666714
  0.3605942785281321  0.1666666666666714  0.3333333333333286
  0.3605942785281321  0.1666666666666714  0.8333333333333286
  0.3605942785281321  0.6666666666666714  0.3333333333333286
  0.3605942785281321  0.6666666666666714  0.8333333333333286
  0.5240131141966294  0.1666666666666714  0.3333333333333286
  0.5240131141966294  0.1666666666666714  0.8333333333333286
  0.5240131141966294  0.6666666666666714  0.3333333333333286
  0.5240131141966294  0.6666666666666714  0.8333333333333286
  0.5612078745404149  0.3333333333333286  0.1666666666666714
  0.5612078745404149  0.3333333333333286  0.6666666666666714
  0.5612078745404149  0.8333333333333286  0.1666666666666714
  0.5612078745404149  0.8333333333333286  0.6666666666666714
  0.5986516278971019  0.1666666666666714  0.3333333333333286
  0.5986516278971019  0.1666666666666714  0.8333333333333286
  0.5986516278971019  0.6666666666666714  0.3333333333333286
  0.5986516278971019  0.6666666666666714  0.8333333333333286
  0.6361333288640869  0.3333333333333286  0.1666666666666714
  0.6361333288640869  0.3333333333333286  0.6666666666666714
  0.6361333288640869  0.8333333333333286  0.1666666666666714
  0.6361333288640869  0.8333333333333286  0.6666666666666714
  0.6735364263005060  0.1666666666666714  0.3333333333333286
  0.6735364263005060  0.1666666666666714  0.8333333333333286
  0.6735364263005060  0.6666666666666714  0.3333333333333286
  0.6735364263005060  0.6666666666666714  0.8333333333333286
  0.7110916119372431  0.3333333333333286  0.1666666666666714
  0.7110916119372431  0.3333333333333286  0.6666666666666714
  0.7110916119372431  0.8333333333333286  0.1666666666666714
  0.7110916119372431  0.8333333333333286  0.6666666666666714
  0.7484936740898329  0.1666666666666714  0.3333333333333286
  0.7484936740898329  0.1666666666666714  0.8333333333333286
  0.7484936740898329  0.6666666666666714  0.3333333333333286
  0.7484936740898329  0.6666666666666714  0.8333333333333286
  0.7859678117678941  0.3333333333333286  0.1666666666666714
  0.7859678117678941  0.3333333333333286  0.6666666666666714
  0.7859678117678941  0.8333333333333286  0.1666666666666714
  0.7859678117678941  0.8333333333333286  0.6666666666666714
  0.8234041832275268  0.1666666666666714  0.3333333333333286
  0.8234041832275268  0.1666666666666714  0.8333333333333286
  0.8234041832275268  0.6666666666666714  0.3333333333333286
  0.8234041832275268  0.6666666666666714  0.8333333333333286
  0.8605942785281325  0.3333333333333286  0.1666666666666714
  0.8605942785281325  0.3333333333333286  0.6666666666666714
  0.8605942785281325  0.8333333333333286  0.1666666666666714
  0.8605942785281325  0.8333333333333286  0.6666666666666714
  0.4007015509504414  0.3333333333333286  0.1666666666666714
  0.4007015509504414  0.3333333333333286  0.6666666666666714
  0.4007015509504414  0.8333333333333286  0.1666666666666714
  0.4007015509504414  0.8333333333333286  0.6666666666666714
  0.4423022507242110  0.1666666666666714  0.3333333333333286
  0.4423022507242110  0.1666666666666714  0.8333333333333286
  0.4423022507242110  0.6666666666666714  0.3333333333333286
  0.4423022507242110  0.6666666666666714  0.8333333333333286
  0.4839022669759568  0.3333333333333286  0.1666666666666714
  0.4839022669759568  0.3333333333333286  0.6666666666666714
  0.4839022669759568  0.8333333333333286  0.1666666666666714
  0.4839022669759568  0.8333333333333286  0.6666666666666714
  0.9007015509504420  0.1666666666666714  0.3333333333333286
  0.9007015509504420  0.1666666666666714  0.8333333333333286
  0.9007015509504420  0.6666666666666714  0.3333333333333286
  0.9007015509504420  0.6666666666666714  0.8333333333333286
  0.9423022507242117  0.3333333333333286  0.1666666666666714
  0.9423022507242117  0.3333333333333286  0.6666666666666714
  0.9423022507242117  0.8333333333333286  0.1666666666666714
  0.9423022507242117  0.8333333333333286  0.6666666666666714
  0.9839022669759573  0.1666666666666714  0.3333333333333286
  0.9839022669759573  0.1666666666666714  0.8333333333333286
  0.9839022669759573  0.6666666666666714  0.3333333333333286
  0.9839022669759573  0.6666666666666714  0.8333333333333286
 
  0.00000000E+00  0.00000000E+00  0.00000000E+00
  0.00000000E+00  0.00000000E+00  0.00000000E+00
  0.00000000E+00  0.00000000E+00  0.00000000E+00
  0.00000000E+00  0.00000000E+00  0.00000000E+00
  0.00000000E+00  0.00000000E+00  0.00000000E+00
  0.00000000E+00  0.00000000E+00  0.00000000E+00
  0.00000000E+00  0.00000000E+00  0.00000000E+00
  0.00000000E+00  0.00000000E+00  0.00000000E+00
  0.00000000E+00  0.00000000E+00  0.00000000E+00
  0.00000000E+00  0.00000000E+00  0.00000000E+00
  0.00000000E+00  0.00000000E+00  0.00000000E+00
  0.00000000E+00  0.00000000E+00  0.00000000E+00
  0.00000000E+00  0.00000000E+00  0.00000000E+00
  0.00000000E+00  0.00000000E+00  0.00000000E+00
  0.00000000E+00  0.00000000E+00  0.00000000E+00
  0.00000000E+00  0.00000000E+00  0.00000000E+00
  0.00000000E+00  0.00000000E+00  0.00000000E+00
  0.00000000E+00  0.00000000E+00  0.00000000E+00
  0.00000000E+00  0.00000000E+00  0.00000000E+00
  0.00000000E+00  0.00000000E+00  0.00000000E+00
  0.00000000E+00  0.00000000E+00  0.00000000E+00
  0.00000000E+00  0.00000000E+00  0.00000000E+00
  0.00000000E+00  0.00000000E+00  0.00000000E+00
  0.00000000E+00  0.00000000E+00  0.00000000E+00
  0.00000000E+00  0.00000000E+00  0.00000000E+00
  0.00000000E+00  0.00000000E+00  0.00000000E+00
  0.00000000E+00  0.00000000E+00  0.00000000E+00
  0.00000000E+00  0.00000000E+00  0.00000000E+00
  0.00000000E+00  0.00000000E+00  0.00000000E+00
  0.00000000E+00  0.00000000E+00  0.00000000E+00
  0.00000000E+00  0.00000000E+00  0.00000000E+00
  0.00000000E+00  0.00000000E+00  0.00000000E+00
  0.00000000E+00  0.00000000E+00  0.00000000E+00
  0.00000000E+00  0.00000000E+00  0.00000000E+00
  0.00000000E+00  0.00000000E+00  0.00000000E+00
  0.00000000E+00  0.00000000E+00  0.00000000E+00
  0.00000000E+00  0.00000000E+00  0.00000000E+00
  0.00000000E+00  0.00000000E+00  0.00000000E+00
  0.00000000E+00  0.00000000E+00  0.00000000E+00
  0.00000000E+00  0.00000000E+00  0.00000000E+00
  0.00000000E+00  0.00000000E+00  0.00000000E+00
  0.00000000E+00  0.00000000E+00  0.00000000E+00
  0.00000000E+00  0.00000000E+00  0.00000000E+00
  0.00000000E+00  0.00000000E+00  0.00000000E+00
  0.00000000E+00  0.00000000E+00  0.00000000E+00
  0.00000000E+00  0.00000000E+00  0.00000000E+00
  0.00000000E+00  0.00000000E+00  0.00000000E+00
  0.00000000E+00  0.00000000E+00  0.00000000E+00
  0.00000000E+00  0.00000000E+00  0.00000000E+00
  0.00000000E+00  0.00000000E+00  0.00000000E+00
  0.00000000E+00  0.00000000E+00  0.00000000E+00
  0.00000000E+00  0.00000000E+00  0.00000000E+00
  0.00000000E+00  0.00000000E+00  0.00000000E+00
  0.00000000E+00  0.00000000E+00  0.00000000E+00
  0.00000000E+00  0.00000000E+00  0.00000000E+00
  0.00000000E+00  0.00000000E+00  0.00000000E+00
  0.00000000E+00  0.00000000E+00  0.00000000E+00
  0.00000000E+00  0.00000000E+00  0.00000000E+00
  0.00000000E+00  0.00000000E+00  0.00000000E+00
  0.00000000E+00  0.00000000E+00  0.00000000E+00
  0.00000000E+00  0.00000000E+00  0.00000000E+00
  0.00000000E+00  0.00000000E+00  0.00000000E+00
  0.00000000E+00  0.00000000E+00  0.00000000E+00
  0.00000000E+00  0.00000000E+00  0.00000000E+00
  0.00000000E+00  0.00000000E+00  0.00000000E+00
  0.00000000E+00  0.00000000E+00  0.00000000E+00
  0.00000000E+00  0.00000000E+00  0.00000000E+00
  0.00000000E+00  0.00000000E+00  0.00000000E+00
  0.00000000E+00  0.00000000E+00  0.00000000E+00
  0.00000000E+00  0.00000000E+00  0.00000000E+00
  0.00000000E+00  0.00000000E+00  0.00000000E+00
  0.00000000E+00  0.00000000E+00  0.00000000E+00
  0.00000000E+00  0.00000000E+00  0.00000000E+00
  0.00000000E+00  0.00000000E+00  0.00000000E+00
  0.00000000E+00  0.00000000E+00  0.00000000E+00
  0.00000000E+00  0.00000000E+00  0.00000000E+00
  0.00000000E+00  0.00000000E+00  0.00000000E+00
  0.00000000E+00  0.00000000E+00  0.00000000E+00
  0.00000000E+00  0.00000000E+00  0.00000000E+00
  0.00000000E+00  0.00000000E+00  0.00000000E+00
  0.00000000E+00  0.00000000E+00  0.00000000E+00
  0.00000000E+00  0.00000000E+00  0.00000000E+00
  0.00000000E+00  0.00000000E+00  0.00000000E+00
  0.00000000E+00  0.00000000E+00  0.00000000E+00
  0.00000000E+00  0.00000000E+00  0.00000000E+00
  0.00000000E+00  0.00000000E+00  0.00000000E+00
  0.00000000E+00  0.00000000E+00  0.00000000E+00
  0.00000000E+00  0.00000000E+00  0.00000000E+00
  0.00000000E+00  0.00000000E+00  0.00000000E+00
  0.00000000E+00  0.00000000E+00  0.00000000E+00
  0.00000000E+00  0.00000000E+00  0.00000000E+00
  0.00000000E+00  0.00000000E+00  0.00000000E+00
  0.00000000E+00  0.00000000E+00  0.00000000E+00
  0.00000000E+00  0.00000000E+00  0.00000000E+00
  0.00000000E+00  0.00000000E+00  0.00000000E+00
  0.00000000E+00  0.00000000E+00  0.00000000E+00
  0.00000000E+00  0.00000000E+00  0.00000000E+00
  0.00000000E+00  0.00000000E+00  0.00000000E+00
  0.00000000E+00  0.00000000E+00  0.00000000E+00
  0.00000000E+00  0.00000000E+00  0.00000000E+00
  0.00000000E+00  0.00000000E+00  0.00000000E+00
  0.00000000E+00  0.00000000E+00  0.00000000E+00
  0.00000000E+00  0.00000000E+00  0.00000000E+00
  0.00000000E+00  0.00000000E+00  0.00000000E+00
