generated by phonopy                    
    1.018070905848551     
    51.7213014495394319    0.0000000000000000    0.0000000000000000
    -0.0000000000000000    5.0891746960153732    0.0000000000000001
     0.0000000000000000   -2.5445873480076866    4.4073545710462509
   Co   Ru
    80    24
Direct
  0.0238209093597916  0.3333333333333286  0.1666666666666714
  0.0238209093597916  0.3333333333333286  0.6666666666666714
  0.0238209093597916  0.8333333333333286  0.1666666666666714
  0.0238209093597916  0.8333333333333286  0.6666666666666714
  0.0610528688946559  0.1666666666666714  0.3333333333333286
  0.0610528688946559  0.1666666666666714  0.8333333333333286
  0.0610528688946559  0.6666666666666714  0.3333333333333286
  0.0610528688946559  0.6666666666666714  0.8333333333333286
  0.0985619873086989  0.3333333333333286  0.1666666666666714
  0.0985619873086989  0.3333333333333286  0.6666666666666714
  0.0985619873086989  0.8333333333333286  0.1666666666666714
  0.0985619873086989  0.8333333333333286  0.6666666666666714
  0.1360787720748746  0.1666666666666714  0.3333333333333286
  0.1360787720748746  0.1666666666666714  0.8333333333333286
  0.1360787720748746  0.6666666666666714  0.3333333333333286
  0.1360787720748746  0.6666666666666714  0.8333333333333286
  0.1735389702499006  0.3333333333333286  0.1666666666666714
  0.1735389702499006  0.3333333333333286  0.6666666666666714
  0.1735389702499006  0.8333333333333286  0.1666666666666714
  0.1735389702499006  0.8333333333333286  0.6666666666666714
  0.2111449961350758  0.1666666666666714  0.3333333333333286
  0.2111449961350758  0.1666666666666714  0.8333333333333286
  0.2111449961350758  0.6666666666666714  0.3333333333333286
  0.2111449961350758  0.6666666666666714  0.8333333333333286
  0.2485879914395710  0.3333333333333286  0.1666666666666714
  0.2485879914395710  0.3333333333333286  0.6666666666666714
  0.2485879914395710  0.8333333333333286  0.1666666666666714
  0.2485879914395710  0.8333333333333286  0.6666666666666714
  0.2860777045239900  0.1666666666666714  0.3333333333333286
  0.2860777045239900  0.1666666666666714  0.8333333333333286
  0.2860777045239900  0.6666666666666714  0.3333333333333286
  0.2860777045239900  0.6666666666666714  0.8333333333333286
  0.3235528457648229  0.3333333333333286  0.1666666666666714
  0.3235528457648229  0.3333333333333286  0.6666666666666714
  0.3235528457648229  0.8333333333333286  0.1666666666666714
  0.3235528457648229  0.8333333333333286  0.6666666666666714
  0.3607568580300153  0.1666666666666714  0.3333333333333286
  0.3607568580300153  0.1666666666666714  0.8333333333333286
  0.3607568580300153  0.6666666666666714  0.3333333333333286
  0.3607568580300153  0.6666666666666714  0.8333333333333286
  0.5238209093597916  0.1666666666666714  0.3333333333333286
  0.5238209093597916  0.1666666666666714  0.8333333333333286
  0.5238209093597916  0.6666666666666714  0.3333333333333286
  0.5238209093597916  0.6666666666666714  0.8333333333333286
  0.5610528688946559  0.3333333333333286  0.1666666666666714
  0.5610528688946559  0.3333333333333286  0.6666666666666714
  0.5610528688946559  0.8333333333333286  0.1666666666666714
  0.5610528688946559  0.8333333333333286  0.6666666666666714
  0.5985619873086918  0.1666666666666714  0.3333333333333286
  0.5985619873086918  0.1666666666666714  0.8333333333333286
  0.5985619873086918  0.6666666666666714  0.3333333333333286
  0.5985619873086918  0.6666666666666714  0.8333333333333286
  0.6360787720748675  0.3333333333333286  0.1666666666666714
  0.6360787720748675  0.3333333333333286  0.6666666666666714
  0.6360787720748675  0.8333333333333286  0.1666666666666714
  0.6360787720748675  0.8333333333333286  0.6666666666666714
  0.6735389702498935  0.1666666666666714  0.3333333333333286
  0.6735389702498935  0.1666666666666714  0.8333333333333286
  0.6735389702498935  0.6666666666666714  0.3333333333333286
  0.6735389702498935  0.6666666666666714  0.8333333333333286
  0.7111449961350758  0.3333333333333286  0.1666666666666714
  0.7111449961350758  0.3333333333333286  0.6666666666666714
  0.7111449961350758  0.8333333333333286  0.1666666666666714
  0.7111449961350758  0.8333333333333286  0.6666666666666714
  0.7485879914395781  0.1666666666666714  0.3333333333333286
  0.7485879914395781  0.1666666666666714  0.8333333333333286
  0.7485879914395781  0.6666666666666714  0.3333333333333286
  0.7485879914395781  0.6666666666666714  0.8333333333333286
  0.7860777045239900  0.3333333333333286  0.1666666666666714
  0.7860777045239900  0.3333333333333286  0.6666666666666714
  0.7860777045239900  0.8333333333333286  0.1666666666666714
  0.7860777045239900  0.8333333333333286  0.6666666666666714
  0.8235528457648229  0.1666666666666714  0.3333333333333286
  0.8235528457648229  0.1666666666666714  0.8333333333333286
  0.8235528457648229  0.6666666666666714  0.3333333333333286
  0.8235528457648229  0.6666666666666714  0.8333333333333286
  0.8607568580300153  0.3333333333333286  0.1666666666666714
  0.8607568580300153  0.3333333333333286  0.6666666666666714
  0.8607568580300153  0.8333333333333286  0.1666666666666714
  0.8607568580300153  0.8333333333333286  0.6666666666666714
  0.4008805029669631  0.3333333333333286  0.1666666666666714
  0.4008805029669631  0.3333333333333286  0.6666666666666714
  0.4008805029669631  0.8333333333333286  0.1666666666666714
  0.4008805029669631  0.8333333333333286  0.6666666666666714
  0.4422740354383876  0.1666666666666714  0.3333333333333286
  0.4422740354383876  0.1666666666666714  0.8333333333333286
  0.4422740354383876  0.6666666666666714  0.3333333333333286
  0.4422740354383876  0.6666666666666714  0.8333333333333286
  0.4836715578132527  0.3333333333333286  0.1666666666666714
  0.4836715578132527  0.3333333333333286  0.6666666666666714
  0.4836715578132527  0.8333333333333286  0.1666666666666714
  0.4836715578132527  0.8333333333333286  0.6666666666666714
  0.9008805029669631  0.1666666666666714  0.3333333333333286
  0.9008805029669631  0.1666666666666714  0.8333333333333286
  0.9008805029669631  0.6666666666666714  0.3333333333333286
  0.9008805029669631  0.6666666666666714  0.8333333333333286
  0.9422740354383876  0.3333333333333286  0.1666666666666714
  0.9422740354383876  0.3333333333333286  0.6666666666666714
  0.9422740354383876  0.8333333333333286  0.1666666666666714
  0.9422740354383876  0.8333333333333286  0.6666666666666714
  0.9836715578132527  0.1666666666666714  0.3333333333333286
  0.9836715578132527  0.1666666666666714  0.8333333333333286
  0.9836715578132527  0.6666666666666714  0.3333333333333286
  0.9836715578132527  0.6666666666666714  0.8333333333333286
 
  0.00000000E+00  0.00000000E+00  0.00000000E+00
  0.00000000E+00  0.00000000E+00  0.00000000E+00
  0.00000000E+00  0.00000000E+00  0.00000000E+00
  0.00000000E+00  0.00000000E+00  0.00000000E+00
  0.00000000E+00  0.00000000E+00  0.00000000E+00
  0.00000000E+00  0.00000000E+00  0.00000000E+00
  0.00000000E+00  0.00000000E+00  0.00000000E+00
  0.00000000E+00  0.00000000E+00  0.00000000E+00
  0.00000000E+00  0.00000000E+00  0.00000000E+00
  0.00000000E+00  0.00000000E+00  0.00000000E+00
  0.00000000E+00  0.00000000E+00  0.00000000E+00
  0.00000000E+00  0.00000000E+00  0.00000000E+00
  0.00000000E+00  0.00000000E+00  0.00000000E+00
  0.00000000E+00  0.00000000E+00  0.00000000E+00
  0.00000000E+00  0.00000000E+00  0.00000000E+00
  0.00000000E+00  0.00000000E+00  0.00000000E+00
  0.00000000E+00  0.00000000E+00  0.00000000E+00
  0.00000000E+00  0.00000000E+00  0.00000000E+00
  0.00000000E+00  0.00000000E+00  0.00000000E+00
  0.00000000E+00  0.00000000E+00  0.00000000E+00
  0.00000000E+00  0.00000000E+00  0.00000000E+00
  0.00000000E+00  0.00000000E+00  0.00000000E+00
  0.00000000E+00  0.00000000E+00  0.00000000E+00
  0.00000000E+00  0.00000000E+00  0.00000000E+00
  0.00000000E+00  0.00000000E+00  0.00000000E+00
  0.00000000E+00  0.00000000E+00  0.00000000E+00
  0.00000000E+00  0.00000000E+00  0.00000000E+00
  0.00000000E+00  0.00000000E+00  0.00000000E+00
  0.00000000E+00  0.00000000E+00  0.00000000E+00
  0.00000000E+00  0.00000000E+00  0.00000000E+00
  0.00000000E+00  0.00000000E+00  0.00000000E+00
  0.00000000E+00  0.00000000E+00  0.00000000E+00
  0.00000000E+00  0.00000000E+00  0.00000000E+00
  0.00000000E+00  0.00000000E+00  0.00000000E+00
  0.00000000E+00  0.00000000E+00  0.00000000E+00
  0.00000000E+00  0.00000000E+00  0.00000000E+00
  0.00000000E+00  0.00000000E+00  0.00000000E+00
  0.00000000E+00  0.00000000E+00  0.00000000E+00
  0.00000000E+00  0.00000000E+00  0.00000000E+00
  0.00000000E+00  0.00000000E+00  0.00000000E+00
  0.00000000E+00  0.00000000E+00  0.00000000E+00
  0.00000000E+00  0.00000000E+00  0.00000000E+00
  0.00000000E+00  0.00000000E+00  0.00000000E+00
  0.00000000E+00  0.00000000E+00  0.00000000E+00
  0.00000000E+00  0.00000000E+00  0.00000000E+00
  0.00000000E+00  0.00000000E+00  0.00000000E+00
  0.00000000E+00  0.00000000E+00  0.00000000E+00
  0.00000000E+00  0.00000000E+00  0.00000000E+00
  0.00000000E+00  0.00000000E+00  0.00000000E+00
  0.00000000E+00  0.00000000E+00  0.00000000E+00
  0.00000000E+00  0.00000000E+00  0.00000000E+00
  0.00000000E+00  0.00000000E+00  0.00000000E+00
  0.00000000E+00  0.00000000E+00  0.00000000E+00
  0.00000000E+00  0.00000000E+00  0.00000000E+00
  0.00000000E+00  0.00000000E+00  0.00000000E+00
  0.00000000E+00  0.00000000E+00  0.00000000E+00
  0.00000000E+00  0.00000000E+00  0.00000000E+00
  0.00000000E+00  0.00000000E+00  0.00000000E+00
  0.00000000E+00  0.00000000E+00  0.00000000E+00
  0.00000000E+00  0.00000000E+00  0.00000000E+00
  0.00000000E+00  0.00000000E+00  0.00000000E+00
  0.00000000E+00  0.00000000E+00  0.00000000E+00
  0.00000000E+00  0.00000000E+00  0.00000000E+00
  0.00000000E+00  0.00000000E+00  0.00000000E+00
  0.00000000E+00  0.00000000E+00  0.00000000E+00
  0.00000000E+00  0.00000000E+00  0.00000000E+00
  0.00000000E+00  0.00000000E+00  0.00000000E+00
  0.00000000E+00  0.00000000E+00  0.00000000E+00
  0.00000000E+00  0.00000000E+00  0.00000000E+00
  0.00000000E+00  0.00000000E+00  0.00000000E+00
  0.00000000E+00  0.00000000E+00  0.00000000E+00
  0.00000000E+00  0.00000000E+00  0.00000000E+00
  0.00000000E+00  0.00000000E+00  0.00000000E+00
  0.00000000E+00  0.00000000E+00  0.00000000E+00
  0.00000000E+00  0.00000000E+00  0.00000000E+00
  0.00000000E+00  0.00000000E+00  0.00000000E+00
  0.00000000E+00  0.00000000E+00  0.00000000E+00
  0.00000000E+00  0.00000000E+00  0.00000000E+00
  0.00000000E+00  0.00000000E+00  0.00000000E+00
  0.00000000E+00  0.00000000E+00  0.00000000E+00
  0.00000000E+00  0.00000000E+00  0.00000000E+00
  0.00000000E+00  0.00000000E+00  0.00000000E+00
  0.00000000E+00  0.00000000E+00  0.00000000E+00
  0.00000000E+00  0.00000000E+00  0.00000000E+00
  0.00000000E+00  0.00000000E+00  0.00000000E+00
  0.00000000E+00  0.00000000E+00  0.00000000E+00
  0.00000000E+00  0.00000000E+00  0.00000000E+00
  0.00000000E+00  0.00000000E+00  0.00000000E+00
  0.00000000E+00  0.00000000E+00  0.00000000E+00
  0.00000000E+00  0.00000000E+00  0.00000000E+00
  0.00000000E+00  0.00000000E+00  0.00000000E+00
  0.00000000E+00  0.00000000E+00  0.00000000E+00
  0.00000000E+00  0.00000000E+00  0.00000000E+00
  0.00000000E+00  0.00000000E+00  0.00000000E+00
  0.00000000E+00  0.00000000E+00  0.00000000E+00
  0.00000000E+00  0.00000000E+00  0.00000000E+00
  0.00000000E+00  0.00000000E+00  0.00000000E+00
  0.00000000E+00  0.00000000E+00  0.00000000E+00
  0.00000000E+00  0.00000000E+00  0.00000000E+00
  0.00000000E+00  0.00000000E+00  0.00000000E+00
  0.00000000E+00  0.00000000E+00  0.00000000E+00
  0.00000000E+00  0.00000000E+00  0.00000000E+00
  0.00000000E+00  0.00000000E+00  0.00000000E+00
  0.00000000E+00  0.00000000E+00  0.00000000E+00
