generated by phonopy                    
    1.021453226063731     
    51.7350441557504226   -0.0000000000000000    0.0000000000000000
    -0.0000000000000000    5.0884987163284041    0.0000000000000001
     0.0000000000000000   -2.5442493581642021    4.4067691554648949
   Co   Ru
    80    24
Direct
  0.0237773511453949  0.3333333333333286  0.1666666666666714
  0.0237773511453949  0.3333333333333286  0.6666666666666714
  0.0237773511453949  0.8333333333333286  0.1666666666666714
  0.0237773511453949  0.8333333333333286  0.6666666666666714
  0.0610373870590783  0.1666666666666714  0.3333333333333286
  0.0610373870590783  0.1666666666666714  0.8333333333333286
  0.0610373870590783  0.6666666666666714  0.3333333333333286
  0.0610373870590783  0.6666666666666714  0.8333333333333286
  0.0985739493244240  0.3333333333333286  0.1666666666666714
  0.0985739493244240  0.3333333333333286  0.6666666666666714
  0.0985739493244240  0.8333333333333286  0.1666666666666714
  0.0985739493244240  0.8333333333333286  0.6666666666666714
  0.1360772459661633  0.1666666666666714  0.3333333333333286
  0.1360772459661633  0.1666666666666714  0.8333333333333286
  0.1360772459661633  0.6666666666666714  0.3333333333333286
  0.1360772459661633  0.6666666666666714  0.8333333333333286
  0.1735331370582820  0.3333333333333286  0.1666666666666714
  0.1735331370582820  0.3333333333333286  0.6666666666666714
  0.1735331370582820  0.8333333333333286  0.1666666666666714
  0.1735331370582820  0.8333333333333286  0.6666666666666714
  0.2111223588415437  0.1666666666666714  0.3333333333333286
  0.2111223588415437  0.1666666666666714  0.8333333333333286
  0.2111223588415437  0.6666666666666714  0.3333333333333286
  0.2111223588415437  0.6666666666666714  0.8333333333333286
  0.2485686902147451  0.3333333333333286  0.1666666666666714
  0.2485686902147451  0.3333333333333286  0.6666666666666714
  0.2485686902147451  0.8333333333333286  0.1666666666666714
  0.2485686902147451  0.8333333333333286  0.6666666666666714
  0.2860572170322191  0.1666666666666714  0.3333333333333286
  0.2860572170322191  0.1666666666666714  0.8333333333333286
  0.2860572170322191  0.6666666666666714  0.3333333333333286
  0.2860572170322191  0.6666666666666714  0.8333333333333286
  0.3235717766440345  0.3333333333333286  0.1666666666666714
  0.3235717766440345  0.3333333333333286  0.6666666666666714
  0.3235717766440345  0.8333333333333286  0.1666666666666714
  0.3235717766440345  0.8333333333333286  0.6666666666666714
  0.3608142003857805  0.1666666666666714  0.3333333333333286
  0.3608142003857805  0.1666666666666714  0.8333333333333286
  0.3608142003857805  0.6666666666666714  0.3333333333333286
  0.3608142003857805  0.6666666666666714  0.8333333333333286
  0.5237773511453954  0.1666666666666714  0.3333333333333286
  0.5237773511453954  0.1666666666666714  0.8333333333333286
  0.5237773511453954  0.6666666666666714  0.3333333333333286
  0.5237773511453954  0.6666666666666714  0.8333333333333286
  0.5610373870590784  0.3333333333333286  0.1666666666666714
  0.5610373870590784  0.3333333333333286  0.6666666666666714
  0.5610373870590784  0.8333333333333286  0.1666666666666714
  0.5610373870590784  0.8333333333333286  0.6666666666666714
  0.5985739493244171  0.1666666666666714  0.3333333333333286
  0.5985739493244171  0.1666666666666714  0.8333333333333286
  0.5985739493244171  0.6666666666666714  0.3333333333333286
  0.5985739493244171  0.6666666666666714  0.8333333333333286
  0.6360772459661566  0.3333333333333286  0.1666666666666714
  0.6360772459661566  0.3333333333333286  0.6666666666666714
  0.6360772459661566  0.8333333333333286  0.1666666666666714
  0.6360772459661566  0.8333333333333286  0.6666666666666714
  0.6735331370582746  0.1666666666666714  0.3333333333333286
  0.6735331370582746  0.1666666666666714  0.8333333333333286
  0.6735331370582746  0.6666666666666714  0.3333333333333286
  0.6735331370582746  0.6666666666666714  0.8333333333333286
  0.7111223588415434  0.3333333333333286  0.1666666666666714
  0.7111223588415434  0.3333333333333286  0.6666666666666714
  0.7111223588415434  0.8333333333333286  0.1666666666666714
  0.7111223588415434  0.8333333333333286  0.6666666666666714
  0.7485686902147525  0.1666666666666714  0.3333333333333286
  0.7485686902147525  0.1666666666666714  0.8333333333333286
  0.7485686902147525  0.6666666666666714  0.3333333333333286
  0.7485686902147525  0.6666666666666714  0.8333333333333286
  0.7860572170322194  0.3333333333333286  0.1666666666666714
  0.7860572170322194  0.3333333333333286  0.6666666666666714
  0.7860572170322194  0.8333333333333286  0.1666666666666714
  0.7860572170322194  0.8333333333333286  0.6666666666666714
  0.8235717766440344  0.1666666666666714  0.3333333333333286
  0.8235717766440344  0.1666666666666714  0.8333333333333286
  0.8235717766440344  0.6666666666666714  0.3333333333333286
  0.8235717766440344  0.6666666666666714  0.8333333333333286
  0.8608142003857807  0.3333333333333286  0.1666666666666714
  0.8608142003857807  0.3333333333333286  0.6666666666666714
  0.8608142003857807  0.8333333333333286  0.1666666666666714
  0.8608142003857807  0.8333333333333286  0.6666666666666714
  0.4009887736756266  0.3333333333333286  0.1666666666666714
  0.4009887736756266  0.3333333333333286  0.6666666666666714
  0.4009887736756266  0.8333333333333286  0.1666666666666714
  0.4009887736756266  0.8333333333333286  0.6666666666666714
  0.4422883682238328  0.1666666666666714  0.3333333333333286
  0.4422883682238328  0.1666666666666714  0.8333333333333286
  0.4422883682238328  0.6666666666666714  0.3333333333333286
  0.4422883682238328  0.6666666666666714  0.8333333333333286
  0.4835895444288746  0.3333333333333286  0.1666666666666714
  0.4835895444288746  0.3333333333333286  0.6666666666666714
  0.4835895444288746  0.8333333333333286  0.1666666666666714
  0.4835895444288746  0.8333333333333286  0.6666666666666714
  0.9009887736756266  0.1666666666666714  0.3333333333333286
  0.9009887736756266  0.1666666666666714  0.8333333333333286
  0.9009887736756266  0.6666666666666714  0.3333333333333286
  0.9009887736756266  0.6666666666666714  0.8333333333333286
  0.9422883682238327  0.3333333333333286  0.1666666666666714
  0.9422883682238327  0.3333333333333286  0.6666666666666714
  0.9422883682238327  0.8333333333333286  0.1666666666666714
  0.9422883682238327  0.8333333333333286  0.6666666666666714
  0.9835895444288748  0.1666666666666714  0.3333333333333286
  0.9835895444288748  0.1666666666666714  0.8333333333333286
  0.9835895444288748  0.6666666666666714  0.3333333333333286
  0.9835895444288748  0.6666666666666714  0.8333333333333286
 
  0.00000000E+00  0.00000000E+00  0.00000000E+00
  0.00000000E+00  0.00000000E+00  0.00000000E+00
  0.00000000E+00  0.00000000E+00  0.00000000E+00
  0.00000000E+00  0.00000000E+00  0.00000000E+00
  0.00000000E+00  0.00000000E+00  0.00000000E+00
  0.00000000E+00  0.00000000E+00  0.00000000E+00
  0.00000000E+00  0.00000000E+00  0.00000000E+00
  0.00000000E+00  0.00000000E+00  0.00000000E+00
  0.00000000E+00  0.00000000E+00  0.00000000E+00
  0.00000000E+00  0.00000000E+00  0.00000000E+00
  0.00000000E+00  0.00000000E+00  0.00000000E+00
  0.00000000E+00  0.00000000E+00  0.00000000E+00
  0.00000000E+00  0.00000000E+00  0.00000000E+00
  0.00000000E+00  0.00000000E+00  0.00000000E+00
  0.00000000E+00  0.00000000E+00  0.00000000E+00
  0.00000000E+00  0.00000000E+00  0.00000000E+00
  0.00000000E+00  0.00000000E+00  0.00000000E+00
  0.00000000E+00  0.00000000E+00  0.00000000E+00
  0.00000000E+00  0.00000000E+00  0.00000000E+00
  0.00000000E+00  0.00000000E+00  0.00000000E+00
  0.00000000E+00  0.00000000E+00  0.00000000E+00
  0.00000000E+00  0.00000000E+00  0.00000000E+00
  0.00000000E+00  0.00000000E+00  0.00000000E+00
  0.00000000E+00  0.00000000E+00  0.00000000E+00
  0.00000000E+00  0.00000000E+00  0.00000000E+00
  0.00000000E+00  0.00000000E+00  0.00000000E+00
  0.00000000E+00  0.00000000E+00  0.00000000E+00
  0.00000000E+00  0.00000000E+00  0.00000000E+00
  0.00000000E+00  0.00000000E+00  0.00000000E+00
  0.00000000E+00  0.00000000E+00  0.00000000E+00
  0.00000000E+00  0.00000000E+00  0.00000000E+00
  0.00000000E+00  0.00000000E+00  0.00000000E+00
  0.00000000E+00  0.00000000E+00  0.00000000E+00
  0.00000000E+00  0.00000000E+00  0.00000000E+00
  0.00000000E+00  0.00000000E+00  0.00000000E+00
  0.00000000E+00  0.00000000E+00  0.00000000E+00
  0.00000000E+00  0.00000000E+00  0.00000000E+00
  0.00000000E+00  0.00000000E+00  0.00000000E+00
  0.00000000E+00  0.00000000E+00  0.00000000E+00
  0.00000000E+00  0.00000000E+00  0.00000000E+00
  0.00000000E+00  0.00000000E+00  0.00000000E+00
  0.00000000E+00  0.00000000E+00  0.00000000E+00
  0.00000000E+00  0.00000000E+00  0.00000000E+00
  0.00000000E+00  0.00000000E+00  0.00000000E+00
  0.00000000E+00  0.00000000E+00  0.00000000E+00
  0.00000000E+00  0.00000000E+00  0.00000000E+00
  0.00000000E+00  0.00000000E+00  0.00000000E+00
  0.00000000E+00  0.00000000E+00  0.00000000E+00
  0.00000000E+00  0.00000000E+00  0.00000000E+00
  0.00000000E+00  0.00000000E+00  0.00000000E+00
  0.00000000E+00  0.00000000E+00  0.00000000E+00
  0.00000000E+00  0.00000000E+00  0.00000000E+00
  0.00000000E+00  0.00000000E+00  0.00000000E+00
  0.00000000E+00  0.00000000E+00  0.00000000E+00
  0.00000000E+00  0.00000000E+00  0.00000000E+00
  0.00000000E+00  0.00000000E+00  0.00000000E+00
  0.00000000E+00  0.00000000E+00  0.00000000E+00
  0.00000000E+00  0.00000000E+00  0.00000000E+00
  0.00000000E+00  0.00000000E+00  0.00000000E+00
  0.00000000E+00  0.00000000E+00  0.00000000E+00
  0.00000000E+00  0.00000000E+00  0.00000000E+00
  0.00000000E+00  0.00000000E+00  0.00000000E+00
  0.00000000E+00  0.00000000E+00  0.00000000E+00
  0.00000000E+00  0.00000000E+00  0.00000000E+00
  0.00000000E+00  0.00000000E+00  0.00000000E+00
  0.00000000E+00  0.00000000E+00  0.00000000E+00
  0.00000000E+00  0.00000000E+00  0.00000000E+00
  0.00000000E+00  0.00000000E+00  0.00000000E+00
  0.00000000E+00  0.00000000E+00  0.00000000E+00
  0.00000000E+00  0.00000000E+00  0.00000000E+00
  0.00000000E+00  0.00000000E+00  0.00000000E+00
  0.00000000E+00  0.00000000E+00  0.00000000E+00
  0.00000000E+00  0.00000000E+00  0.00000000E+00
  0.00000000E+00  0.00000000E+00  0.00000000E+00
  0.00000000E+00  0.00000000E+00  0.00000000E+00
  0.00000000E+00  0.00000000E+00  0.00000000E+00
  0.00000000E+00  0.00000000E+00  0.00000000E+00
  0.00000000E+00  0.00000000E+00  0.00000000E+00
  0.00000000E+00  0.00000000E+00  0.00000000E+00
  0.00000000E+00  0.00000000E+00  0.00000000E+00
  0.00000000E+00  0.00000000E+00  0.00000000E+00
  0.00000000E+00  0.00000000E+00  0.00000000E+00
  0.00000000E+00  0.00000000E+00  0.00000000E+00
  0.00000000E+00  0.00000000E+00  0.00000000E+00
  0.00000000E+00  0.00000000E+00  0.00000000E+00
  0.00000000E+00  0.00000000E+00  0.00000000E+00
  0.00000000E+00  0.00000000E+00  0.00000000E+00
  0.00000000E+00  0.00000000E+00  0.00000000E+00
  0.00000000E+00  0.00000000E+00  0.00000000E+00
  0.00000000E+00  0.00000000E+00  0.00000000E+00
  0.00000000E+00  0.00000000E+00  0.00000000E+00
  0.00000000E+00  0.00000000E+00  0.00000000E+00
  0.00000000E+00  0.00000000E+00  0.00000000E+00
  0.00000000E+00  0.00000000E+00  0.00000000E+00
  0.00000000E+00  0.00000000E+00  0.00000000E+00
  0.00000000E+00  0.00000000E+00  0.00000000E+00
  0.00000000E+00  0.00000000E+00  0.00000000E+00
  0.00000000E+00  0.00000000E+00  0.00000000E+00
  0.00000000E+00  0.00000000E+00  0.00000000E+00
  0.00000000E+00  0.00000000E+00  0.00000000E+00
  0.00000000E+00  0.00000000E+00  0.00000000E+00
  0.00000000E+00  0.00000000E+00  0.00000000E+00
  0.00000000E+00  0.00000000E+00  0.00000000E+00
  0.00000000E+00  0.00000000E+00  0.00000000E+00
