generated by phonopy                    
   0.9966554934125964     
    28.2642122036171024    0.0000000000000000   -0.0000000000000000
    -0.0000000000000000    5.1062925564646537    0.0000000000000000
    -0.0000000000000000   -2.5531462782323269    4.4221790730537762
   Co   Ru
    48     8
Direct
  0.0387233342517086  0.3333333333333286  0.1666666666666714
  0.0387233342517086  0.3333333333333286  0.6666666666666714
  0.0387233342517086  0.8333333333333286  0.1666666666666714
  0.0387233342517086  0.8333333333333286  0.6666666666666714
  0.1087726536522098  0.1666666666666714  0.3333333333333286
  0.1087726536522098  0.1666666666666714  0.8333333333333286
  0.1087726536522098  0.6666666666666714  0.3333333333333286
  0.1087726536522098  0.6666666666666714  0.8333333333333286
  0.1790600497685987  0.3333333333333286  0.1666666666666714
  0.1790600497685987  0.3333333333333286  0.6666666666666714
  0.1790600497685987  0.8333333333333286  0.1666666666666714
  0.1790600497685987  0.8333333333333286  0.6666666666666714
  0.2495113788028319  0.1666666666666714  0.3333333333333286
  0.2495113788028319  0.1666666666666714  0.8333333333333286
  0.2495113788028319  0.6666666666666714  0.3333333333333286
  0.2495113788028319  0.6666666666666714  0.8333333333333286
  0.3197987749192137  0.3333333333333286  0.1666666666666714
  0.3197987749192137  0.3333333333333286  0.6666666666666714
  0.3197987749192137  0.8333333333333286  0.1666666666666714
  0.3197987749192137  0.8333333333333286  0.6666666666666714
  0.3898480943197292  0.1666666666666714  0.3333333333333286
  0.3898480943197292  0.1666666666666714  0.8333333333333286
  0.3898480943197292  0.6666666666666714  0.3333333333333286
  0.3898480943197292  0.6666666666666714  0.8333333333333286
  0.5387233342517014  0.1666666666666714  0.3333333333333286
  0.5387233342517014  0.1666666666666714  0.8333333333333286
  0.5387233342517014  0.6666666666666714  0.3333333333333286
  0.5387233342517014  0.6666666666666714  0.8333333333333286
  0.6087726536522098  0.3333333333333286  0.1666666666666714
  0.6087726536522098  0.3333333333333286  0.6666666666666714
  0.6087726536522098  0.8333333333333286  0.1666666666666714
  0.6087726536522098  0.8333333333333286  0.6666666666666714
  0.6790600497685987  0.1666666666666714  0.3333333333333286
  0.6790600497685987  0.1666666666666714  0.8333333333333286
  0.6790600497685987  0.6666666666666714  0.3333333333333286
  0.6790600497685987  0.6666666666666714  0.8333333333333286
  0.7495113788028319  0.3333333333333286  0.1666666666666714
  0.7495113788028319  0.3333333333333286  0.6666666666666714
  0.7495113788028319  0.8333333333333286  0.1666666666666714
  0.7495113788028319  0.8333333333333286  0.6666666666666714
  0.8197987749192137  0.1666666666666714  0.3333333333333286
  0.8197987749192137  0.1666666666666714  0.8333333333333286
  0.8197987749192137  0.6666666666666714  0.3333333333333286
  0.8197987749192137  0.6666666666666714  0.8333333333333286
  0.8898480943197292  0.3333333333333286  0.1666666666666714
  0.8898480943197292  0.3333333333333286  0.6666666666666714
  0.8898480943197292  0.8333333333333286  0.1666666666666714
  0.8898480943197292  0.8333333333333286  0.6666666666666714
  0.4642857142857153  0.3333333333333286  0.1666666666666714
  0.4642857142857153  0.3333333333333286  0.6666666666666714
  0.4642857142857153  0.8333333333333286  0.1666666666666714
  0.4642857142857153  0.8333333333333286  0.6666666666666714
  0.9642857142857153  0.1666666666666714  0.3333333333333286
  0.9642857142857153  0.1666666666666714  0.8333333333333286
  0.9642857142857153  0.6666666666666714  0.3333333333333286
  0.9642857142857153  0.6666666666666714  0.8333333333333286
 
  0.00000000E+00  0.00000000E+00  0.00000000E+00
  0.00000000E+00  0.00000000E+00  0.00000000E+00
  0.00000000E+00  0.00000000E+00  0.00000000E+00
  0.00000000E+00  0.00000000E+00  0.00000000E+00
  0.00000000E+00  0.00000000E+00  0.00000000E+00
  0.00000000E+00  0.00000000E+00  0.00000000E+00
  0.00000000E+00  0.00000000E+00  0.00000000E+00
  0.00000000E+00  0.00000000E+00  0.00000000E+00
  0.00000000E+00  0.00000000E+00  0.00000000E+00
  0.00000000E+00  0.00000000E+00  0.00000000E+00
  0.00000000E+00  0.00000000E+00  0.00000000E+00
  0.00000000E+00  0.00000000E+00  0.00000000E+00
  0.00000000E+00  0.00000000E+00  0.00000000E+00
  0.00000000E+00  0.00000000E+00  0.00000000E+00
  0.00000000E+00  0.00000000E+00  0.00000000E+00
  0.00000000E+00  0.00000000E+00  0.00000000E+00
  0.00000000E+00  0.00000000E+00  0.00000000E+00
  0.00000000E+00  0.00000000E+00  0.00000000E+00
  0.00000000E+00  0.00000000E+00  0.00000000E+00
  0.00000000E+00  0.00000000E+00  0.00000000E+00
  0.00000000E+00  0.00000000E+00  0.00000000E+00
  0.00000000E+00  0.00000000E+00  0.00000000E+00
  0.00000000E+00  0.00000000E+00  0.00000000E+00
  0.00000000E+00  0.00000000E+00  0.00000000E+00
  0.00000000E+00  0.00000000E+00  0.00000000E+00
  0.00000000E+00  0.00000000E+00  0.00000000E+00
  0.00000000E+00  0.00000000E+00  0.00000000E+00
  0.00000000E+00  0.00000000E+00  0.00000000E+00
  0.00000000E+00  0.00000000E+00  0.00000000E+00
  0.00000000E+00  0.00000000E+00  0.00000000E+00
  0.00000000E+00  0.00000000E+00  0.00000000E+00
  0.00000000E+00  0.00000000E+00  0.00000000E+00
  0.00000000E+00  0.00000000E+00  0.00000000E+00
  0.00000000E+00  0.00000000E+00  0.00000000E+00
  0.00000000E+00  0.00000000E+00  0.00000000E+00
  0.00000000E+00  0.00000000E+00  0.00000000E+00
  0.00000000E+00  0.00000000E+00  0.00000000E+00
  0.00000000E+00  0.00000000E+00  0.00000000E+00
  0.00000000E+00  0.00000000E+00  0.00000000E+00
  0.00000000E+00  0.00000000E+00  0.00000000E+00
  0.00000000E+00  0.00000000E+00  0.00000000E+00
  0.00000000E+00  0.00000000E+00  0.00000000E+00
  0.00000000E+00  0.00000000E+00  0.00000000E+00
  0.00000000E+00  0.00000000E+00  0.00000000E+00
  0.00000000E+00  0.00000000E+00  0.00000000E+00
  0.00000000E+00  0.00000000E+00  0.00000000E+00
  0.00000000E+00  0.00000000E+00  0.00000000E+00
  0.00000000E+00  0.00000000E+00  0.00000000E+00
  0.00000000E+00  0.00000000E+00  0.00000000E+00
  0.00000000E+00  0.00000000E+00  0.00000000E+00
  0.00000000E+00  0.00000000E+00  0.00000000E+00
  0.00000000E+00  0.00000000E+00  0.00000000E+00
  0.00000000E+00  0.00000000E+00  0.00000000E+00
  0.00000000E+00  0.00000000E+00  0.00000000E+00
  0.00000000E+00  0.00000000E+00  0.00000000E+00
  0.00000000E+00  0.00000000E+00  0.00000000E+00
