generated by phonopy                    
    1.003322283542089     
    28.2715445426975691   -0.0000000000000000    0.0000000000000000
    -0.0000000000000000    5.1056303447423792   -0.0000000000000000
     0.0000000000000000   -2.5528151723711896    4.4216055808796044
   Co   Ru
    48     8
Direct
  0.0386406664123267  0.3333333333333286  0.1666666666666714
  0.0386406664123267  0.3333333333333286  0.6666666666666714
  0.0386406664123267  0.8333333333333286  0.1666666666666714
  0.0386406664123267  0.8333333333333286  0.6666666666666714
  0.1087104094488129  0.1666666666666714  0.3333333333333286
  0.1087104094488129  0.1666666666666714  0.8333333333333286
  0.1087104094488129  0.6666666666666714  0.3333333333333286
  0.1087104094488129  0.6666666666666714  0.8333333333333286
  0.1790977259139194  0.3333333333333286  0.1666666666666714
  0.1790977259139194  0.3333333333333286  0.6666666666666714
  0.1790977259139194  0.8333333333333286  0.1666666666666714
  0.1790977259139194  0.8333333333333286  0.6666666666666714
  0.2494737026575112  0.1666666666666714  0.3333333333333286
  0.2494737026575112  0.1666666666666714  0.8333333333333286
  0.2494737026575112  0.6666666666666714  0.3333333333333286
  0.2494737026575112  0.6666666666666714  0.8333333333333286
  0.3198610191226106  0.3333333333333286  0.1666666666666714
  0.3198610191226106  0.3333333333333286  0.6666666666666714
  0.3198610191226106  0.8333333333333286  0.1666666666666714
  0.3198610191226106  0.8333333333333286  0.6666666666666714
  0.3899307621591110  0.1666666666666714  0.3333333333333286
  0.3899307621591110  0.1666666666666714  0.8333333333333286
  0.3899307621591110  0.6666666666666714  0.3333333333333286
  0.3899307621591110  0.6666666666666714  0.8333333333333286
  0.5386406664123196  0.1666666666666714  0.3333333333333286
  0.5386406664123196  0.1666666666666714  0.8333333333333286
  0.5386406664123196  0.6666666666666714  0.3333333333333286
  0.5386406664123196  0.6666666666666714  0.8333333333333286
  0.6087104094488131  0.3333333333333286  0.1666666666666714
  0.6087104094488131  0.3333333333333286  0.6666666666666714
  0.6087104094488131  0.8333333333333286  0.1666666666666714
  0.6087104094488131  0.8333333333333286  0.6666666666666714
  0.6790977259139193  0.1666666666666714  0.3333333333333286
  0.6790977259139193  0.1666666666666714  0.8333333333333286
  0.6790977259139193  0.6666666666666714  0.3333333333333286
  0.6790977259139193  0.6666666666666714  0.8333333333333286
  0.7494737026575113  0.3333333333333286  0.1666666666666714
  0.7494737026575113  0.3333333333333286  0.6666666666666714
  0.7494737026575113  0.8333333333333286  0.1666666666666714
  0.7494737026575113  0.8333333333333286  0.6666666666666714
  0.8198610191226104  0.1666666666666714  0.3333333333333286
  0.8198610191226104  0.1666666666666714  0.8333333333333286
  0.8198610191226104  0.6666666666666714  0.3333333333333286
  0.8198610191226104  0.6666666666666714  0.8333333333333286
  0.8899307621591110  0.3333333333333286  0.1666666666666714
  0.8899307621591110  0.3333333333333286  0.6666666666666714
  0.8899307621591110  0.8333333333333286  0.1666666666666714
  0.8899307621591110  0.8333333333333286  0.6666666666666714
  0.4642857142857153  0.3333333333333286  0.1666666666666714
  0.4642857142857153  0.3333333333333286  0.6666666666666714
  0.4642857142857153  0.8333333333333286  0.1666666666666714
  0.4642857142857153  0.8333333333333286  0.6666666666666714
  0.9642857142857153  0.1666666666666714  0.3333333333333286
  0.9642857142857153  0.1666666666666714  0.8333333333333286
  0.9642857142857153  0.6666666666666714  0.3333333333333286
  0.9642857142857153  0.6666666666666714  0.8333333333333286
 
  0.00000000E+00  0.00000000E+00  0.00000000E+00
  0.00000000E+00  0.00000000E+00  0.00000000E+00
  0.00000000E+00  0.00000000E+00  0.00000000E+00
  0.00000000E+00  0.00000000E+00  0.00000000E+00
  0.00000000E+00  0.00000000E+00  0.00000000E+00
  0.00000000E+00  0.00000000E+00  0.00000000E+00
  0.00000000E+00  0.00000000E+00  0.00000000E+00
  0.00000000E+00  0.00000000E+00  0.00000000E+00
  0.00000000E+00  0.00000000E+00  0.00000000E+00
  0.00000000E+00  0.00000000E+00  0.00000000E+00
  0.00000000E+00  0.00000000E+00  0.00000000E+00
  0.00000000E+00  0.00000000E+00  0.00000000E+00
  0.00000000E+00  0.00000000E+00  0.00000000E+00
  0.00000000E+00  0.00000000E+00  0.00000000E+00
  0.00000000E+00  0.00000000E+00  0.00000000E+00
  0.00000000E+00  0.00000000E+00  0.00000000E+00
  0.00000000E+00  0.00000000E+00  0.00000000E+00
  0.00000000E+00  0.00000000E+00  0.00000000E+00
  0.00000000E+00  0.00000000E+00  0.00000000E+00
  0.00000000E+00  0.00000000E+00  0.00000000E+00
  0.00000000E+00  0.00000000E+00  0.00000000E+00
  0.00000000E+00  0.00000000E+00  0.00000000E+00
  0.00000000E+00  0.00000000E+00  0.00000000E+00
  0.00000000E+00  0.00000000E+00  0.00000000E+00
  0.00000000E+00  0.00000000E+00  0.00000000E+00
  0.00000000E+00  0.00000000E+00  0.00000000E+00
  0.00000000E+00  0.00000000E+00  0.00000000E+00
  0.00000000E+00  0.00000000E+00  0.00000000E+00
  0.00000000E+00  0.00000000E+00  0.00000000E+00
  0.00000000E+00  0.00000000E+00  0.00000000E+00
  0.00000000E+00  0.00000000E+00  0.00000000E+00
  0.00000000E+00  0.00000000E+00  0.00000000E+00
  0.00000000E+00  0.00000000E+00  0.00000000E+00
  0.00000000E+00  0.00000000E+00  0.00000000E+00
  0.00000000E+00  0.00000000E+00  0.00000000E+00
  0.00000000E+00  0.00000000E+00  0.00000000E+00
  0.00000000E+00  0.00000000E+00  0.00000000E+00
  0.00000000E+00  0.00000000E+00  0.00000000E+00
  0.00000000E+00  0.00000000E+00  0.00000000E+00
  0.00000000E+00  0.00000000E+00  0.00000000E+00
  0.00000000E+00  0.00000000E+00  0.00000000E+00
  0.00000000E+00  0.00000000E+00  0.00000000E+00
  0.00000000E+00  0.00000000E+00  0.00000000E+00
  0.00000000E+00  0.00000000E+00  0.00000000E+00
  0.00000000E+00  0.00000000E+00  0.00000000E+00
  0.00000000E+00  0.00000000E+00  0.00000000E+00
  0.00000000E+00  0.00000000E+00  0.00000000E+00
  0.00000000E+00  0.00000000E+00  0.00000000E+00
  0.00000000E+00  0.00000000E+00  0.00000000E+00
  0.00000000E+00  0.00000000E+00  0.00000000E+00
  0.00000000E+00  0.00000000E+00  0.00000000E+00
  0.00000000E+00  0.00000000E+00  0.00000000E+00
  0.00000000E+00  0.00000000E+00  0.00000000E+00
  0.00000000E+00  0.00000000E+00  0.00000000E+00
  0.00000000E+00  0.00000000E+00  0.00000000E+00
  0.00000000E+00  0.00000000E+00  0.00000000E+00
