generated by phonopy                    
   0.9999999999999999     
    28.2643350658196013    0.0000000000000000   -0.0000000000000000
    -0.0000000000000000    5.1062814581842506   -0.0000000000000000
    -0.0000000000000000   -2.5531407290921253    4.4221694616610092
   Co   Ru
    48     8
Direct
  0.0386954567469239  0.3333333333333286  0.1666666666666714
  0.0386954567469239  0.3333333333333286  0.6666666666666714
  0.0386954567469239  0.8333333333333286  0.1666666666666714
  0.0386954567469239  0.8333333333333286  0.6666666666666714
  0.1087486731221138  0.1666666666666714  0.3333333333333286
  0.1087486731221138  0.1666666666666714  0.8333333333333286
  0.1087486731221138  0.6666666666666714  0.3333333333333286
  0.1087486731221138  0.6666666666666714  0.8333333333333286
  0.1790885186463587  0.3333333333333286  0.1666666666666714
  0.1790885186463587  0.3333333333333286  0.6666666666666714
  0.1790885186463587  0.8333333333333286  0.1666666666666714
  0.1790885186463587  0.8333333333333286  0.6666666666666714
  0.2494829099250719  0.1666666666666714  0.3333333333333286
  0.2494829099250719  0.1666666666666714  0.8333333333333286
  0.2494829099250719  0.6666666666666714  0.3333333333333286
  0.2494829099250719  0.6666666666666714  0.8333333333333286
  0.3198227554493096  0.3333333333333286  0.1666666666666714
  0.3198227554493096  0.3333333333333286  0.6666666666666714
  0.3198227554493096  0.8333333333333286  0.1666666666666714
  0.3198227554493096  0.8333333333333286  0.6666666666666714
  0.3898759718245138  0.1666666666666714  0.3333333333333286
  0.3898759718245138  0.1666666666666714  0.8333333333333286
  0.3898759718245138  0.6666666666666714  0.3333333333333286
  0.3898759718245138  0.6666666666666714  0.8333333333333286
  0.5386954567469168  0.1666666666666714  0.3333333333333286
  0.5386954567469168  0.1666666666666714  0.8333333333333286
  0.5386954567469168  0.6666666666666714  0.3333333333333286
  0.5386954567469168  0.6666666666666714  0.8333333333333286
  0.6087486731221139  0.3333333333333286  0.1666666666666714
  0.6087486731221139  0.3333333333333286  0.6666666666666714
  0.6087486731221139  0.8333333333333286  0.1666666666666714
  0.6087486731221139  0.8333333333333286  0.6666666666666714
  0.6790885186463586  0.1666666666666714  0.3333333333333286
  0.6790885186463586  0.1666666666666714  0.8333333333333286
  0.6790885186463586  0.6666666666666714  0.3333333333333286
  0.6790885186463586  0.6666666666666714  0.8333333333333286
  0.7494829099250720  0.3333333333333286  0.1666666666666714
  0.7494829099250720  0.3333333333333286  0.6666666666666714
  0.7494829099250720  0.8333333333333286  0.1666666666666714
  0.7494829099250720  0.8333333333333286  0.6666666666666714
  0.8198227554493096  0.1666666666666714  0.3333333333333286
  0.8198227554493096  0.1666666666666714  0.8333333333333286
  0.8198227554493096  0.6666666666666714  0.3333333333333286
  0.8198227554493096  0.6666666666666714  0.8333333333333286
  0.8898759718245138  0.3333333333333286  0.1666666666666714
  0.8898759718245138  0.3333333333333286  0.6666666666666714
  0.8898759718245138  0.8333333333333286  0.1666666666666714
  0.8898759718245138  0.8333333333333286  0.6666666666666714
  0.4642857142857153  0.3333333333333286  0.1666666666666714
  0.4642857142857153  0.3333333333333286  0.6666666666666714
  0.4642857142857153  0.8333333333333286  0.1666666666666714
  0.4642857142857153  0.8333333333333286  0.6666666666666714
  0.9642857142857153  0.1666666666666714  0.3333333333333286
  0.9642857142857153  0.1666666666666714  0.8333333333333286
  0.9642857142857153  0.6666666666666714  0.3333333333333286
  0.9642857142857153  0.6666666666666714  0.8333333333333286
 
  0.00000000E+00  0.00000000E+00  0.00000000E+00
  0.00000000E+00  0.00000000E+00  0.00000000E+00
  0.00000000E+00  0.00000000E+00  0.00000000E+00
  0.00000000E+00  0.00000000E+00  0.00000000E+00
  0.00000000E+00  0.00000000E+00  0.00000000E+00
  0.00000000E+00  0.00000000E+00  0.00000000E+00
  0.00000000E+00  0.00000000E+00  0.00000000E+00
  0.00000000E+00  0.00000000E+00  0.00000000E+00
  0.00000000E+00  0.00000000E+00  0.00000000E+00
  0.00000000E+00  0.00000000E+00  0.00000000E+00
  0.00000000E+00  0.00000000E+00  0.00000000E+00
  0.00000000E+00  0.00000000E+00  0.00000000E+00
  0.00000000E+00  0.00000000E+00  0.00000000E+00
  0.00000000E+00  0.00000000E+00  0.00000000E+00
  0.00000000E+00  0.00000000E+00  0.00000000E+00
  0.00000000E+00  0.00000000E+00  0.00000000E+00
  0.00000000E+00  0.00000000E+00  0.00000000E+00
  0.00000000E+00  0.00000000E+00  0.00000000E+00
  0.00000000E+00  0.00000000E+00  0.00000000E+00
  0.00000000E+00  0.00000000E+00  0.00000000E+00
  0.00000000E+00  0.00000000E+00  0.00000000E+00
  0.00000000E+00  0.00000000E+00  0.00000000E+00
  0.00000000E+00  0.00000000E+00  0.00000000E+00
  0.00000000E+00  0.00000000E+00  0.00000000E+00
  0.00000000E+00  0.00000000E+00  0.00000000E+00
  0.00000000E+00  0.00000000E+00  0.00000000E+00
  0.00000000E+00  0.00000000E+00  0.00000000E+00
  0.00000000E+00  0.00000000E+00  0.00000000E+00
  0.00000000E+00  0.00000000E+00  0.00000000E+00
  0.00000000E+00  0.00000000E+00  0.00000000E+00
  0.00000000E+00  0.00000000E+00  0.00000000E+00
  0.00000000E+00  0.00000000E+00  0.00000000E+00
  0.00000000E+00  0.00000000E+00  0.00000000E+00
  0.00000000E+00  0.00000000E+00  0.00000000E+00
  0.00000000E+00  0.00000000E+00  0.00000000E+00
  0.00000000E+00  0.00000000E+00  0.00000000E+00
  0.00000000E+00  0.00000000E+00  0.00000000E+00
  0.00000000E+00  0.00000000E+00  0.00000000E+00
  0.00000000E+00  0.00000000E+00  0.00000000E+00
  0.00000000E+00  0.00000000E+00  0.00000000E+00
  0.00000000E+00  0.00000000E+00  0.00000000E+00
  0.00000000E+00  0.00000000E+00  0.00000000E+00
  0.00000000E+00  0.00000000E+00  0.00000000E+00
  0.00000000E+00  0.00000000E+00  0.00000000E+00
  0.00000000E+00  0.00000000E+00  0.00000000E+00
  0.00000000E+00  0.00000000E+00  0.00000000E+00
  0.00000000E+00  0.00000000E+00  0.00000000E+00
  0.00000000E+00  0.00000000E+00  0.00000000E+00
  0.00000000E+00  0.00000000E+00  0.00000000E+00
  0.00000000E+00  0.00000000E+00  0.00000000E+00
  0.00000000E+00  0.00000000E+00  0.00000000E+00
  0.00000000E+00  0.00000000E+00  0.00000000E+00
  0.00000000E+00  0.00000000E+00  0.00000000E+00
  0.00000000E+00  0.00000000E+00  0.00000000E+00
  0.00000000E+00  0.00000000E+00  0.00000000E+00
  0.00000000E+00  0.00000000E+00  0.00000000E+00
