generated by phonopy                    
    1.003288838351106     
    48.2877072803833798   -0.0000000000000000   -0.0000000000000000
    -0.0000000000000000    5.1586953160914337   -0.0000000000000001
     0.0000000000000000   -2.5793476580457160    4.4675611941189715
   Co   Ru
    72    24
Direct
  0.0257796590626934  0.3333333333333286  0.1666666666666714
  0.0257796590626934  0.3333333333333286  0.6666666666666714
  0.0257796590626934  0.8333333333333286  0.1666666666666714
  0.0257796590626934  0.8333333333333286  0.6666666666666714
  0.0659719765173118  0.1666666666666714  0.3333333333333286
  0.0659719765173118  0.1666666666666714  0.8333333333333286
  0.0659719765173118  0.6666666666666714  0.3333333333333286
  0.0659719765173118  0.6666666666666714  0.8333333333333286
  0.1065000644460400  0.3333333333333286  0.1666666666666714
  0.1065000644460400  0.3333333333333286  0.6666666666666714
  0.1065000644460400  0.8333333333333286  0.1666666666666714
  0.1065000644460400  0.8333333333333286  0.6666666666666714
  0.1469720058814931  0.1666666666666714  0.3333333333333286
  0.1469720058814931  0.1666666666666714  0.8333333333333286
  0.1469720058814931  0.6666666666666714  0.3333333333333286
  0.1469720058814931  0.6666666666666714  0.8333333333333286
  0.1875054551675195  0.3333333333333286  0.1666666666666714
  0.1875054551675195  0.3333333333333286  0.6666666666666714
  0.1875054551675195  0.8333333333333286  0.1666666666666714
  0.1875054551675195  0.8333333333333286  0.6666666666666714
  0.2280370042437629  0.1666666666666714  0.3333333333333286
  0.2280370042437629  0.1666666666666714  0.8333333333333286
  0.2280370042437629  0.6666666666666714  0.3333333333333286
  0.2280370042437629  0.6666666666666714  0.8333333333333286
  0.2685052346693713  0.3333333333333286  0.1666666666666714
  0.2685052346693713  0.3333333333333286  0.6666666666666714
  0.2685052346693713  0.8333333333333286  0.1666666666666714
  0.2685052346693713  0.8333333333333286  0.6666666666666714
  0.3090275451031946  0.1666666666666714  0.3333333333333286
  0.3090275451031946  0.1666666666666714  0.8333333333333286
  0.3090275451031946  0.6666666666666714  0.3333333333333286
  0.3090275451031946  0.6666666666666714  0.8333333333333286
  0.3492150841487567  0.3333333333333286  0.1666666666666714
  0.3492150841487567  0.3333333333333286  0.6666666666666714
  0.3492150841487567  0.8333333333333286  0.1666666666666714
  0.3492150841487567  0.8333333333333286  0.6666666666666714
  0.5257796590626868  0.3333333333333286  0.1666666666666714
  0.5257796590626868  0.3333333333333286  0.6666666666666714
  0.5257796590626868  0.8333333333333286  0.1666666666666714
  0.5257796590626868  0.8333333333333286  0.6666666666666714
  0.5659719765173118  0.1666666666666714  0.3333333333333286
  0.5659719765173118  0.1666666666666714  0.8333333333333286
  0.5659719765173118  0.6666666666666714  0.3333333333333286
  0.5659719765173118  0.6666666666666714  0.8333333333333286
  0.6065000644460476  0.3333333333333286  0.1666666666666714
  0.6065000644460476  0.3333333333333286  0.6666666666666714
  0.6065000644460476  0.8333333333333286  0.1666666666666714
  0.6065000644460476  0.8333333333333286  0.6666666666666714
  0.6469720058814928  0.1666666666666714  0.3333333333333286
  0.6469720058814928  0.1666666666666714  0.8333333333333286
  0.6469720058814928  0.6666666666666714  0.3333333333333286
  0.6469720058814928  0.6666666666666714  0.8333333333333286
  0.6875054551675260  0.3333333333333286  0.1666666666666714
  0.6875054551675260  0.3333333333333286  0.6666666666666714
  0.6875054551675260  0.8333333333333286  0.1666666666666714
  0.6875054551675260  0.8333333333333286  0.6666666666666714
  0.7280370042437700  0.1666666666666714  0.3333333333333286
  0.7280370042437700  0.1666666666666714  0.8333333333333286
  0.7280370042437700  0.6666666666666714  0.3333333333333286
  0.7280370042437700  0.6666666666666714  0.8333333333333286
  0.7685052346693639  0.3333333333333286  0.1666666666666714
  0.7685052346693639  0.3333333333333286  0.6666666666666714
  0.7685052346693639  0.8333333333333286  0.1666666666666714
  0.7685052346693639  0.8333333333333286  0.6666666666666714
  0.8090275451031946  0.1666666666666714  0.3333333333333286
  0.8090275451031946  0.1666666666666714  0.8333333333333286
  0.8090275451031946  0.6666666666666714  0.3333333333333286
  0.8090275451031946  0.6666666666666714  0.8333333333333286
  0.8492150841487562  0.3333333333333286  0.1666666666666714
  0.8492150841487562  0.3333333333333286  0.6666666666666714
  0.8492150841487562  0.8333333333333286  0.1666666666666714
  0.8492150841487562  0.8333333333333286  0.6666666666666714
  0.3926101964829098  0.1666666666666714  0.3333333333333286
  0.3926101964829098  0.1666666666666714  0.8333333333333286
  0.3926101964829098  0.6666666666666714  0.3333333333333286
  0.3926101964829098  0.6666666666666714  0.8333333333333286
  0.4374951146949848  0.3333333333333286  0.1666666666666714
  0.4374951146949848  0.3333333333333286  0.6666666666666714
  0.4374951146949848  0.8333333333333286  0.1666666666666714
  0.4374951146949848  0.8333333333333286  0.6666666666666714
  0.4823806595819555  0.1666666666666714  0.3333333333333286
  0.4823806595819555  0.1666666666666714  0.8333333333333286
  0.4823806595819555  0.6666666666666714  0.3333333333333286
  0.4823806595819555  0.6666666666666714  0.8333333333333286
  0.8926101964829168  0.1666666666666714  0.3333333333333286
  0.8926101964829168  0.1666666666666714  0.8333333333333286
  0.8926101964829168  0.6666666666666714  0.3333333333333286
  0.8926101964829168  0.6666666666666714  0.8333333333333286
  0.9374951146949924  0.3333333333333286  0.1666666666666714
  0.9374951146949924  0.3333333333333286  0.6666666666666714
  0.9374951146949924  0.8333333333333286  0.1666666666666714
  0.9374951146949924  0.8333333333333286  0.6666666666666714
  0.9823806595819549  0.1666666666666714  0.3333333333333286
  0.9823806595819549  0.1666666666666714  0.8333333333333286
  0.9823806595819549  0.6666666666666714  0.3333333333333286
  0.9823806595819549  0.6666666666666714  0.8333333333333286
 
  0.00000000E+00  0.00000000E+00  0.00000000E+00
  0.00000000E+00  0.00000000E+00  0.00000000E+00
  0.00000000E+00  0.00000000E+00  0.00000000E+00
  0.00000000E+00  0.00000000E+00  0.00000000E+00
  0.00000000E+00  0.00000000E+00  0.00000000E+00
  0.00000000E+00  0.00000000E+00  0.00000000E+00
  0.00000000E+00  0.00000000E+00  0.00000000E+00
  0.00000000E+00  0.00000000E+00  0.00000000E+00
  0.00000000E+00  0.00000000E+00  0.00000000E+00
  0.00000000E+00  0.00000000E+00  0.00000000E+00
  0.00000000E+00  0.00000000E+00  0.00000000E+00
  0.00000000E+00  0.00000000E+00  0.00000000E+00
  0.00000000E+00  0.00000000E+00  0.00000000E+00
  0.00000000E+00  0.00000000E+00  0.00000000E+00
  0.00000000E+00  0.00000000E+00  0.00000000E+00
  0.00000000E+00  0.00000000E+00  0.00000000E+00
  0.00000000E+00  0.00000000E+00  0.00000000E+00
  0.00000000E+00  0.00000000E+00  0.00000000E+00
  0.00000000E+00  0.00000000E+00  0.00000000E+00
  0.00000000E+00  0.00000000E+00  0.00000000E+00
  0.00000000E+00  0.00000000E+00  0.00000000E+00
  0.00000000E+00  0.00000000E+00  0.00000000E+00
  0.00000000E+00  0.00000000E+00  0.00000000E+00
  0.00000000E+00  0.00000000E+00  0.00000000E+00
  0.00000000E+00  0.00000000E+00  0.00000000E+00
  0.00000000E+00  0.00000000E+00  0.00000000E+00
  0.00000000E+00  0.00000000E+00  0.00000000E+00
  0.00000000E+00  0.00000000E+00  0.00000000E+00
  0.00000000E+00  0.00000000E+00  0.00000000E+00
  0.00000000E+00  0.00000000E+00  0.00000000E+00
  0.00000000E+00  0.00000000E+00  0.00000000E+00
  0.00000000E+00  0.00000000E+00  0.00000000E+00
  0.00000000E+00  0.00000000E+00  0.00000000E+00
  0.00000000E+00  0.00000000E+00  0.00000000E+00
  0.00000000E+00  0.00000000E+00  0.00000000E+00
  0.00000000E+00  0.00000000E+00  0.00000000E+00
  0.00000000E+00  0.00000000E+00  0.00000000E+00
  0.00000000E+00  0.00000000E+00  0.00000000E+00
  0.00000000E+00  0.00000000E+00  0.00000000E+00
  0.00000000E+00  0.00000000E+00  0.00000000E+00
  0.00000000E+00  0.00000000E+00  0.00000000E+00
  0.00000000E+00  0.00000000E+00  0.00000000E+00
  0.00000000E+00  0.00000000E+00  0.00000000E+00
  0.00000000E+00  0.00000000E+00  0.00000000E+00
  0.00000000E+00  0.00000000E+00  0.00000000E+00
  0.00000000E+00  0.00000000E+00  0.00000000E+00
  0.00000000E+00  0.00000000E+00  0.00000000E+00
  0.00000000E+00  0.00000000E+00  0.00000000E+00
  0.00000000E+00  0.00000000E+00  0.00000000E+00
  0.00000000E+00  0.00000000E+00  0.00000000E+00
  0.00000000E+00  0.00000000E+00  0.00000000E+00
  0.00000000E+00  0.00000000E+00  0.00000000E+00
  0.00000000E+00  0.00000000E+00  0.00000000E+00
  0.00000000E+00  0.00000000E+00  0.00000000E+00
  0.00000000E+00  0.00000000E+00  0.00000000E+00
  0.00000000E+00  0.00000000E+00  0.00000000E+00
  0.00000000E+00  0.00000000E+00  0.00000000E+00
  0.00000000E+00  0.00000000E+00  0.00000000E+00
  0.00000000E+00  0.00000000E+00  0.00000000E+00
  0.00000000E+00  0.00000000E+00  0.00000000E+00
  0.00000000E+00  0.00000000E+00  0.00000000E+00
  0.00000000E+00  0.00000000E+00  0.00000000E+00
  0.00000000E+00  0.00000000E+00  0.00000000E+00
  0.00000000E+00  0.00000000E+00  0.00000000E+00
  0.00000000E+00  0.00000000E+00  0.00000000E+00
  0.00000000E+00  0.00000000E+00  0.00000000E+00
  0.00000000E+00  0.00000000E+00  0.00000000E+00
  0.00000000E+00  0.00000000E+00  0.00000000E+00
  0.00000000E+00  0.00000000E+00  0.00000000E+00
  0.00000000E+00  0.00000000E+00  0.00000000E+00
  0.00000000E+00  0.00000000E+00  0.00000000E+00
  0.00000000E+00  0.00000000E+00  0.00000000E+00
  0.00000000E+00  0.00000000E+00  0.00000000E+00
  0.00000000E+00  0.00000000E+00  0.00000000E+00
  0.00000000E+00  0.00000000E+00  0.00000000E+00
  0.00000000E+00  0.00000000E+00  0.00000000E+00
  0.00000000E+00  0.00000000E+00  0.00000000E+00
  0.00000000E+00  0.00000000E+00  0.00000000E+00
  0.00000000E+00  0.00000000E+00  0.00000000E+00
  0.00000000E+00  0.00000000E+00  0.00000000E+00
  0.00000000E+00  0.00000000E+00  0.00000000E+00
  0.00000000E+00  0.00000000E+00  0.00000000E+00
  0.00000000E+00  0.00000000E+00  0.00000000E+00
  0.00000000E+00  0.00000000E+00  0.00000000E+00
  0.00000000E+00  0.00000000E+00  0.00000000E+00
  0.00000000E+00  0.00000000E+00  0.00000000E+00
  0.00000000E+00  0.00000000E+00  0.00000000E+00
  0.00000000E+00  0.00000000E+00  0.00000000E+00
  0.00000000E+00  0.00000000E+00  0.00000000E+00
  0.00000000E+00  0.00000000E+00  0.00000000E+00
  0.00000000E+00  0.00000000E+00  0.00000000E+00
  0.00000000E+00  0.00000000E+00  0.00000000E+00
  0.00000000E+00  0.00000000E+00  0.00000000E+00
  0.00000000E+00  0.00000000E+00  0.00000000E+00
  0.00000000E+00  0.00000000E+00  0.00000000E+00
  0.00000000E+00  0.00000000E+00  0.00000000E+00
