generated by phonopy                    
    1.006655604652112     
    48.2930967502854998   -0.0000000000000000    0.0000000000000000
     0.0000000000000000    5.1584074549814352    0.0000000000000000
     0.0000000000000000   -2.5792037274907171    4.4673118990849536
   Co   Ru
    72    24
Direct
  0.0256386112836248  0.3333333333333286  0.1666666666666714
  0.0256386112836248  0.3333333333333286  0.6666666666666714
  0.0256386112836248  0.8333333333333286  0.1666666666666714
  0.0256386112836248  0.8333333333333286  0.6666666666666714
  0.0658587454027376  0.1666666666666714  0.3333333333333286
  0.0658587454027376  0.1666666666666714  0.8333333333333286
  0.0658587454027376  0.6666666666666714  0.3333333333333286
  0.0658587454027376  0.6666666666666714  0.8333333333333286
  0.1064529763272905  0.3333333333333286  0.1666666666666714
  0.1064529763272905  0.3333333333333286  0.6666666666666714
  0.1064529763272905  0.8333333333333286  0.1666666666666714
  0.1064529763272905  0.8333333333333286  0.6666666666666714
  0.1469592966766011  0.1666666666666714  0.3333333333333286
  0.1469592966766011  0.1666666666666714  0.8333333333333286
  0.1469592966766011  0.6666666666666714  0.3333333333333286
  0.1469592966766011  0.6666666666666714  0.8333333333333286
  0.1875324127103178  0.3333333333333286  0.1666666666666714
  0.1875324127103178  0.3333333333333286  0.6666666666666714
  0.1875324127103178  0.8333333333333286  0.1666666666666714
  0.1875324127103178  0.8333333333333286  0.6666666666666714
  0.2280954836013345  0.1666666666666714  0.3333333333333286
  0.2280954836013345  0.1666666666666714  0.8333333333333286
  0.2280954836013345  0.6666666666666714  0.3333333333333286
  0.2280954836013345  0.6666666666666714  0.8333333333333286
  0.2685807019799804  0.3333333333333286  0.1666666666666714
  0.2685807019799804  0.3333333333333286  0.6666666666666714
  0.2685807019799804  0.8333333333333286  0.1666666666666714
  0.2685807019799804  0.8333333333333286  0.6666666666666714
  0.3091393875600006  0.1666666666666714  0.3333333333333286
  0.3091393875600006  0.1666666666666714  0.8333333333333286
  0.3091393875600006  0.6666666666666714  0.3333333333333286
  0.3091393875600006  0.6666666666666714  0.8333333333333286
  0.3493295115515721  0.3333333333333286  0.1666666666666714
  0.3493295115515721  0.3333333333333286  0.6666666666666714
  0.3493295115515721  0.8333333333333286  0.1666666666666714
  0.3493295115515721  0.8333333333333286  0.6666666666666714
  0.5256386112836177  0.3333333333333286  0.1666666666666714
  0.5256386112836177  0.3333333333333286  0.6666666666666714
  0.5256386112836177  0.8333333333333286  0.1666666666666714
  0.5256386112836177  0.8333333333333286  0.6666666666666714
  0.5658587454027376  0.1666666666666714  0.3333333333333286
  0.5658587454027376  0.1666666666666714  0.8333333333333286
  0.5658587454027376  0.6666666666666714  0.3333333333333286
  0.5658587454027376  0.6666666666666714  0.8333333333333286
  0.6064529763272976  0.3333333333333286  0.1666666666666714
  0.6064529763272976  0.3333333333333286  0.6666666666666714
  0.6064529763272976  0.8333333333333286  0.1666666666666714
  0.6064529763272976  0.8333333333333286  0.6666666666666714
  0.6469592966766011  0.1666666666666714  0.3333333333333286
  0.6469592966766011  0.1666666666666714  0.8333333333333286
  0.6469592966766011  0.6666666666666714  0.3333333333333286
  0.6469592966766011  0.6666666666666714  0.8333333333333286
  0.6875324127103249  0.3333333333333286  0.1666666666666714
  0.6875324127103249  0.3333333333333286  0.6666666666666714
  0.6875324127103249  0.8333333333333286  0.1666666666666714
  0.6875324127103249  0.8333333333333286  0.6666666666666714
  0.7280954836013416  0.1666666666666714  0.3333333333333286
  0.7280954836013416  0.1666666666666714  0.8333333333333286
  0.7280954836013416  0.6666666666666714  0.3333333333333286
  0.7280954836013416  0.6666666666666714  0.8333333333333286
  0.7685807019799733  0.3333333333333286  0.1666666666666714
  0.7685807019799733  0.3333333333333286  0.6666666666666714
  0.7685807019799733  0.8333333333333286  0.1666666666666714
  0.7685807019799733  0.8333333333333286  0.6666666666666714
  0.8091393875600006  0.1666666666666714  0.3333333333333286
  0.8091393875600006  0.1666666666666714  0.8333333333333286
  0.8091393875600006  0.6666666666666714  0.3333333333333286
  0.8091393875600006  0.6666666666666714  0.8333333333333286
  0.8493295115515721  0.3333333333333286  0.1666666666666714
  0.8493295115515721  0.3333333333333286  0.6666666666666714
  0.8493295115515721  0.8333333333333286  0.1666666666666714
  0.8493295115515721  0.8333333333333286  0.6666666666666714
  0.3927173810226522  0.1666666666666714  0.3333333333333286
  0.3927173810226522  0.1666666666666714  0.8333333333333286
  0.3927173810226522  0.6666666666666714  0.3333333333333286
  0.3927173810226522  0.6666666666666714  0.8333333333333286
  0.4374694859418125  0.3333333333333286  0.1666666666666714
  0.4374694859418125  0.3333333333333286  0.6666666666666714
  0.4374694859418125  0.8333333333333286  0.1666666666666714
  0.4374694859418125  0.8333333333333286  0.6666666666666714
  0.4822260059420686  0.1666666666666714  0.3333333333333286
  0.4822260059420686  0.1666666666666714  0.8333333333333286
  0.4822260059420686  0.6666666666666714  0.3333333333333286
  0.4822260059420686  0.6666666666666714  0.8333333333333286
  0.8927173810226594  0.1666666666666714  0.3333333333333286
  0.8927173810226594  0.1666666666666714  0.8333333333333286
  0.8927173810226594  0.6666666666666714  0.3333333333333286
  0.8927173810226594  0.6666666666666714  0.8333333333333286
  0.9374694859418197  0.3333333333333286  0.1666666666666714
  0.9374694859418197  0.3333333333333286  0.6666666666666714
  0.9374694859418197  0.8333333333333286  0.1666666666666714
  0.9374694859418197  0.8333333333333286  0.6666666666666714
  0.9822260059420687  0.1666666666666714  0.3333333333333286
  0.9822260059420687  0.1666666666666714  0.8333333333333286
  0.9822260059420687  0.6666666666666714  0.3333333333333286
  0.9822260059420687  0.6666666666666714  0.8333333333333286
 
  0.00000000E+00  0.00000000E+00  0.00000000E+00
  0.00000000E+00  0.00000000E+00  0.00000000E+00
  0.00000000E+00  0.00000000E+00  0.00000000E+00
  0.00000000E+00  0.00000000E+00  0.00000000E+00
  0.00000000E+00  0.00000000E+00  0.00000000E+00
  0.00000000E+00  0.00000000E+00  0.00000000E+00
  0.00000000E+00  0.00000000E+00  0.00000000E+00
  0.00000000E+00  0.00000000E+00  0.00000000E+00
  0.00000000E+00  0.00000000E+00  0.00000000E+00
  0.00000000E+00  0.00000000E+00  0.00000000E+00
  0.00000000E+00  0.00000000E+00  0.00000000E+00
  0.00000000E+00  0.00000000E+00  0.00000000E+00
  0.00000000E+00  0.00000000E+00  0.00000000E+00
  0.00000000E+00  0.00000000E+00  0.00000000E+00
  0.00000000E+00  0.00000000E+00  0.00000000E+00
  0.00000000E+00  0.00000000E+00  0.00000000E+00
  0.00000000E+00  0.00000000E+00  0.00000000E+00
  0.00000000E+00  0.00000000E+00  0.00000000E+00
  0.00000000E+00  0.00000000E+00  0.00000000E+00
  0.00000000E+00  0.00000000E+00  0.00000000E+00
  0.00000000E+00  0.00000000E+00  0.00000000E+00
  0.00000000E+00  0.00000000E+00  0.00000000E+00
  0.00000000E+00  0.00000000E+00  0.00000000E+00
  0.00000000E+00  0.00000000E+00  0.00000000E+00
  0.00000000E+00  0.00000000E+00  0.00000000E+00
  0.00000000E+00  0.00000000E+00  0.00000000E+00
  0.00000000E+00  0.00000000E+00  0.00000000E+00
  0.00000000E+00  0.00000000E+00  0.00000000E+00
  0.00000000E+00  0.00000000E+00  0.00000000E+00
  0.00000000E+00  0.00000000E+00  0.00000000E+00
  0.00000000E+00  0.00000000E+00  0.00000000E+00
  0.00000000E+00  0.00000000E+00  0.00000000E+00
  0.00000000E+00  0.00000000E+00  0.00000000E+00
  0.00000000E+00  0.00000000E+00  0.00000000E+00
  0.00000000E+00  0.00000000E+00  0.00000000E+00
  0.00000000E+00  0.00000000E+00  0.00000000E+00
  0.00000000E+00  0.00000000E+00  0.00000000E+00
  0.00000000E+00  0.00000000E+00  0.00000000E+00
  0.00000000E+00  0.00000000E+00  0.00000000E+00
  0.00000000E+00  0.00000000E+00  0.00000000E+00
  0.00000000E+00  0.00000000E+00  0.00000000E+00
  0.00000000E+00  0.00000000E+00  0.00000000E+00
  0.00000000E+00  0.00000000E+00  0.00000000E+00
  0.00000000E+00  0.00000000E+00  0.00000000E+00
  0.00000000E+00  0.00000000E+00  0.00000000E+00
  0.00000000E+00  0.00000000E+00  0.00000000E+00
  0.00000000E+00  0.00000000E+00  0.00000000E+00
  0.00000000E+00  0.00000000E+00  0.00000000E+00
  0.00000000E+00  0.00000000E+00  0.00000000E+00
  0.00000000E+00  0.00000000E+00  0.00000000E+00
  0.00000000E+00  0.00000000E+00  0.00000000E+00
  0.00000000E+00  0.00000000E+00  0.00000000E+00
  0.00000000E+00  0.00000000E+00  0.00000000E+00
  0.00000000E+00  0.00000000E+00  0.00000000E+00
  0.00000000E+00  0.00000000E+00  0.00000000E+00
  0.00000000E+00  0.00000000E+00  0.00000000E+00
  0.00000000E+00  0.00000000E+00  0.00000000E+00
  0.00000000E+00  0.00000000E+00  0.00000000E+00
  0.00000000E+00  0.00000000E+00  0.00000000E+00
  0.00000000E+00  0.00000000E+00  0.00000000E+00
  0.00000000E+00  0.00000000E+00  0.00000000E+00
  0.00000000E+00  0.00000000E+00  0.00000000E+00
  0.00000000E+00  0.00000000E+00  0.00000000E+00
  0.00000000E+00  0.00000000E+00  0.00000000E+00
  0.00000000E+00  0.00000000E+00  0.00000000E+00
  0.00000000E+00  0.00000000E+00  0.00000000E+00
  0.00000000E+00  0.00000000E+00  0.00000000E+00
  0.00000000E+00  0.00000000E+00  0.00000000E+00
  0.00000000E+00  0.00000000E+00  0.00000000E+00
  0.00000000E+00  0.00000000E+00  0.00000000E+00
  0.00000000E+00  0.00000000E+00  0.00000000E+00
  0.00000000E+00  0.00000000E+00  0.00000000E+00
  0.00000000E+00  0.00000000E+00  0.00000000E+00
  0.00000000E+00  0.00000000E+00  0.00000000E+00
  0.00000000E+00  0.00000000E+00  0.00000000E+00
  0.00000000E+00  0.00000000E+00  0.00000000E+00
  0.00000000E+00  0.00000000E+00  0.00000000E+00
  0.00000000E+00  0.00000000E+00  0.00000000E+00
  0.00000000E+00  0.00000000E+00  0.00000000E+00
  0.00000000E+00  0.00000000E+00  0.00000000E+00
  0.00000000E+00  0.00000000E+00  0.00000000E+00
  0.00000000E+00  0.00000000E+00  0.00000000E+00
  0.00000000E+00  0.00000000E+00  0.00000000E+00
  0.00000000E+00  0.00000000E+00  0.00000000E+00
  0.00000000E+00  0.00000000E+00  0.00000000E+00
  0.00000000E+00  0.00000000E+00  0.00000000E+00
  0.00000000E+00  0.00000000E+00  0.00000000E+00
  0.00000000E+00  0.00000000E+00  0.00000000E+00
  0.00000000E+00  0.00000000E+00  0.00000000E+00
  0.00000000E+00  0.00000000E+00  0.00000000E+00
  0.00000000E+00  0.00000000E+00  0.00000000E+00
  0.00000000E+00  0.00000000E+00  0.00000000E+00
  0.00000000E+00  0.00000000E+00  0.00000000E+00
  0.00000000E+00  0.00000000E+00  0.00000000E+00
  0.00000000E+00  0.00000000E+00  0.00000000E+00
  0.00000000E+00  0.00000000E+00  0.00000000E+00
