generated by phonopy                    
    1.003322283542089     
    40.3498305104276866    0.0000000000000000   -0.0000000000000000
    -0.0000000000000000    5.0732912627375324    0.0000000000000000
     0.0000000000000000   -2.5366456313687662    4.3935991143283388
   Co   Ru
    72     8
Direct
  0.0273446686375470  0.3333333333333286  0.1666666666666714
  0.0273446686375470  0.3333333333333286  0.6666666666666714
  0.0273446686375470  0.8333333333333286  0.1666666666666714
  0.0273446686375470  0.8333333333333286  0.6666666666666714
  0.0765613426490322  0.1666666666666714  0.3333333333333286
  0.0765613426490322  0.1666666666666714  0.8333333333333286
  0.0765613426490322  0.6666666666666714  0.3333333333333286
  0.0765613426490322  0.6666666666666714  0.8333333333333286
  0.1260519431714925  0.3333333333333286  0.1666666666666714
  0.1260519431714925  0.3333333333333286  0.6666666666666714
  0.1260519431714925  0.8333333333333286  0.1666666666666714
  0.1260519431714925  0.8333333333333286  0.6666666666666714
  0.1755103001281159  0.1666666666666714  0.3333333333333286
  0.1755103001281159  0.1666666666666714  0.8333333333333286
  0.1755103001281159  0.6666666666666714  0.3333333333333286
  0.1755103001281159  0.6666666666666714  0.8333333333333286
  0.2250000000000014  0.3333333333333286  0.1666666666666714
  0.2250000000000014  0.3333333333333286  0.6666666666666714
  0.2250000000000014  0.8333333333333286  0.1666666666666714
  0.2250000000000014  0.8333333333333286  0.6666666666666714
  0.2744896998718799  0.1666666666666714  0.3333333333333286
  0.2744896998718799  0.1666666666666714  0.8333333333333286
  0.2744896998718799  0.6666666666666714  0.3333333333333286
  0.2744896998718799  0.6666666666666714  0.8333333333333286
  0.3239480568285104  0.3333333333333286  0.1666666666666714
  0.3239480568285104  0.3333333333333286  0.6666666666666714
  0.3239480568285104  0.8333333333333286  0.1666666666666714
  0.3239480568285104  0.8333333333333286  0.6666666666666714
  0.3734386573509706  0.1666666666666714  0.3333333333333286
  0.3734386573509706  0.1666666666666714  0.8333333333333286
  0.3734386573509706  0.6666666666666714  0.3333333333333286
  0.3734386573509706  0.6666666666666714  0.8333333333333286
  0.4226553313624488  0.3333333333333286  0.1666666666666714
  0.4226553313624488  0.3333333333333286  0.6666666666666714
  0.4226553313624488  0.8333333333333286  0.1666666666666714
  0.4226553313624488  0.8333333333333286  0.6666666666666714
  0.5273446686375469  0.3333333333333286  0.1666666666666714
  0.5273446686375469  0.3333333333333286  0.6666666666666714
  0.5273446686375469  0.8333333333333286  0.1666666666666714
  0.5273446686375469  0.8333333333333286  0.6666666666666714
  0.5765613426490321  0.1666666666666714  0.3333333333333286
  0.5765613426490321  0.1666666666666714  0.8333333333333286
  0.5765613426490321  0.6666666666666714  0.3333333333333286
  0.5765613426490321  0.6666666666666714  0.8333333333333286
  0.6260519431714925  0.3333333333333286  0.1666666666666714
  0.6260519431714925  0.3333333333333286  0.6666666666666714
  0.6260519431714925  0.8333333333333286  0.1666666666666714
  0.6260519431714925  0.8333333333333286  0.6666666666666714
  0.6755103001281088  0.1666666666666714  0.3333333333333286
  0.6755103001281088  0.1666666666666714  0.8333333333333286
  0.6755103001281088  0.6666666666666714  0.3333333333333286
  0.6755103001281088  0.6666666666666714  0.8333333333333286
  0.7250000000000014  0.3333333333333286  0.1666666666666714
  0.7250000000000014  0.3333333333333286  0.6666666666666714
  0.7250000000000014  0.8333333333333286  0.1666666666666714
  0.7250000000000014  0.8333333333333286  0.6666666666666714
  0.7744896998718870  0.1666666666666714  0.3333333333333286
  0.7744896998718870  0.1666666666666714  0.8333333333333286
  0.7744896998718870  0.6666666666666714  0.3333333333333286
  0.7744896998718870  0.6666666666666714  0.8333333333333286
  0.8239480568285104  0.3333333333333286  0.1666666666666714
  0.8239480568285104  0.3333333333333286  0.6666666666666714
  0.8239480568285104  0.8333333333333286  0.1666666666666714
  0.8239480568285104  0.8333333333333286  0.6666666666666714
  0.8734386573509707  0.1666666666666714  0.3333333333333286
  0.8734386573509707  0.1666666666666714  0.8333333333333286
  0.8734386573509707  0.6666666666666714  0.3333333333333286
  0.8734386573509707  0.6666666666666714  0.8333333333333286
  0.9226553313624488  0.3333333333333286  0.1666666666666714
  0.9226553313624488  0.3333333333333286  0.6666666666666714
  0.9226553313624488  0.8333333333333286  0.1666666666666714
  0.9226553313624488  0.8333333333333286  0.6666666666666714
  0.4750000000000014  0.1666666666666714  0.3333333333333286
  0.4750000000000014  0.1666666666666714  0.8333333333333286
  0.4750000000000014  0.6666666666666714  0.3333333333333286
  0.4750000000000014  0.6666666666666714  0.8333333333333286
  0.9750000000000014  0.1666666666666714  0.3333333333333286
  0.9750000000000014  0.1666666666666714  0.8333333333333286
  0.9750000000000014  0.6666666666666714  0.3333333333333286
  0.9750000000000014  0.6666666666666714  0.8333333333333286
 
  0.00000000E+00  0.00000000E+00  0.00000000E+00
  0.00000000E+00  0.00000000E+00  0.00000000E+00
  0.00000000E+00  0.00000000E+00  0.00000000E+00
  0.00000000E+00  0.00000000E+00  0.00000000E+00
  0.00000000E+00  0.00000000E+00  0.00000000E+00
  0.00000000E+00  0.00000000E+00  0.00000000E+00
  0.00000000E+00  0.00000000E+00  0.00000000E+00
  0.00000000E+00  0.00000000E+00  0.00000000E+00
  0.00000000E+00  0.00000000E+00  0.00000000E+00
  0.00000000E+00  0.00000000E+00  0.00000000E+00
  0.00000000E+00  0.00000000E+00  0.00000000E+00
  0.00000000E+00  0.00000000E+00  0.00000000E+00
  0.00000000E+00  0.00000000E+00  0.00000000E+00
  0.00000000E+00  0.00000000E+00  0.00000000E+00
  0.00000000E+00  0.00000000E+00  0.00000000E+00
  0.00000000E+00  0.00000000E+00  0.00000000E+00
  0.00000000E+00  0.00000000E+00  0.00000000E+00
  0.00000000E+00  0.00000000E+00  0.00000000E+00
  0.00000000E+00  0.00000000E+00  0.00000000E+00
  0.00000000E+00  0.00000000E+00  0.00000000E+00
  0.00000000E+00  0.00000000E+00  0.00000000E+00
  0.00000000E+00  0.00000000E+00  0.00000000E+00
  0.00000000E+00  0.00000000E+00  0.00000000E+00
  0.00000000E+00  0.00000000E+00  0.00000000E+00
  0.00000000E+00  0.00000000E+00  0.00000000E+00
  0.00000000E+00  0.00000000E+00  0.00000000E+00
  0.00000000E+00  0.00000000E+00  0.00000000E+00
  0.00000000E+00  0.00000000E+00  0.00000000E+00
  0.00000000E+00  0.00000000E+00  0.00000000E+00
  0.00000000E+00  0.00000000E+00  0.00000000E+00
  0.00000000E+00  0.00000000E+00  0.00000000E+00
  0.00000000E+00  0.00000000E+00  0.00000000E+00
  0.00000000E+00  0.00000000E+00  0.00000000E+00
  0.00000000E+00  0.00000000E+00  0.00000000E+00
  0.00000000E+00  0.00000000E+00  0.00000000E+00
  0.00000000E+00  0.00000000E+00  0.00000000E+00
  0.00000000E+00  0.00000000E+00  0.00000000E+00
  0.00000000E+00  0.00000000E+00  0.00000000E+00
  0.00000000E+00  0.00000000E+00  0.00000000E+00
  0.00000000E+00  0.00000000E+00  0.00000000E+00
  0.00000000E+00  0.00000000E+00  0.00000000E+00
  0.00000000E+00  0.00000000E+00  0.00000000E+00
  0.00000000E+00  0.00000000E+00  0.00000000E+00
  0.00000000E+00  0.00000000E+00  0.00000000E+00
  0.00000000E+00  0.00000000E+00  0.00000000E+00
  0.00000000E+00  0.00000000E+00  0.00000000E+00
  0.00000000E+00  0.00000000E+00  0.00000000E+00
  0.00000000E+00  0.00000000E+00  0.00000000E+00
  0.00000000E+00  0.00000000E+00  0.00000000E+00
  0.00000000E+00  0.00000000E+00  0.00000000E+00
  0.00000000E+00  0.00000000E+00  0.00000000E+00
  0.00000000E+00  0.00000000E+00  0.00000000E+00
  0.00000000E+00  0.00000000E+00  0.00000000E+00
  0.00000000E+00  0.00000000E+00  0.00000000E+00
  0.00000000E+00  0.00000000E+00  0.00000000E+00
  0.00000000E+00  0.00000000E+00  0.00000000E+00
  0.00000000E+00  0.00000000E+00  0.00000000E+00
  0.00000000E+00  0.00000000E+00  0.00000000E+00
  0.00000000E+00  0.00000000E+00  0.00000000E+00
  0.00000000E+00  0.00000000E+00  0.00000000E+00
  0.00000000E+00  0.00000000E+00  0.00000000E+00
  0.00000000E+00  0.00000000E+00  0.00000000E+00
  0.00000000E+00  0.00000000E+00  0.00000000E+00
  0.00000000E+00  0.00000000E+00  0.00000000E+00
  0.00000000E+00  0.00000000E+00  0.00000000E+00
  0.00000000E+00  0.00000000E+00  0.00000000E+00
  0.00000000E+00  0.00000000E+00  0.00000000E+00
  0.00000000E+00  0.00000000E+00  0.00000000E+00
  0.00000000E+00  0.00000000E+00  0.00000000E+00
  0.00000000E+00  0.00000000E+00  0.00000000E+00
  0.00000000E+00  0.00000000E+00  0.00000000E+00
  0.00000000E+00  0.00000000E+00  0.00000000E+00
  0.00000000E+00  0.00000000E+00  0.00000000E+00
  0.00000000E+00  0.00000000E+00  0.00000000E+00
  0.00000000E+00  0.00000000E+00  0.00000000E+00
  0.00000000E+00  0.00000000E+00  0.00000000E+00
  0.00000000E+00  0.00000000E+00  0.00000000E+00
  0.00000000E+00  0.00000000E+00  0.00000000E+00
  0.00000000E+00  0.00000000E+00  0.00000000E+00
  0.00000000E+00  0.00000000E+00  0.00000000E+00
