generated by phonopy                    
    1.006622709560113     
    40.3509693451896325    0.0000000000000000   -0.0000000000000000
     0.0000000000000000    5.0732196698946854   -0.0000000000000000
    -0.0000000000000000   -2.5366098349473427    4.3935371131077074
   Co   Ru
    72     8
Direct
  0.0272977058819609  0.3333333333333286  0.1666666666666714
  0.0272977058819609  0.3333333333333286  0.6666666666666714
  0.0272977058819609  0.8333333333333286  0.1666666666666714
  0.0272977058819609  0.8333333333333286  0.6666666666666714
  0.0765317686792038  0.1666666666666714  0.3333333333333286
  0.0765317686792038  0.1666666666666714  0.8333333333333286
  0.0765317686792038  0.6666666666666714  0.3333333333333286
  0.0765317686792038  0.6666666666666714  0.8333333333333286
  0.1260409123542085  0.3333333333333286  0.1666666666666714
  0.1260409123542085  0.3333333333333286  0.6666666666666714
  0.1260409123542085  0.8333333333333286  0.1666666666666714
  0.1260409123542085  0.8333333333333286  0.6666666666666714
  0.1755059762238764  0.1666666666666714  0.3333333333333286
  0.1755059762238764  0.1666666666666714  0.8333333333333286
  0.1755059762238764  0.6666666666666714  0.3333333333333286
  0.1755059762238764  0.6666666666666714  0.8333333333333286
  0.2250000000000014  0.3333333333333286  0.1666666666666714
  0.2250000000000014  0.3333333333333286  0.6666666666666714
  0.2250000000000014  0.8333333333333286  0.1666666666666714
  0.2250000000000014  0.8333333333333286  0.6666666666666714
  0.2744940237761194  0.1666666666666714  0.3333333333333286
  0.2744940237761194  0.1666666666666714  0.8333333333333286
  0.2744940237761194  0.6666666666666714  0.3333333333333286
  0.2744940237761194  0.6666666666666714  0.8333333333333286
  0.3239590876457943  0.3333333333333286  0.1666666666666714
  0.3239590876457943  0.3333333333333286  0.6666666666666714
  0.3239590876457943  0.8333333333333286  0.1666666666666714
  0.3239590876457943  0.8333333333333286  0.6666666666666714
  0.3734682313207990  0.1666666666666714  0.3333333333333286
  0.3734682313207990  0.1666666666666714  0.8333333333333286
  0.3734682313207990  0.6666666666666714  0.3333333333333286
  0.3734682313207990  0.6666666666666714  0.8333333333333286
  0.4227022941180348  0.3333333333333286  0.1666666666666714
  0.4227022941180348  0.3333333333333286  0.6666666666666714
  0.4227022941180348  0.8333333333333286  0.1666666666666714
  0.4227022941180348  0.8333333333333286  0.6666666666666714
  0.5272977058819610  0.3333333333333286  0.1666666666666714
  0.5272977058819610  0.3333333333333286  0.6666666666666714
  0.5272977058819610  0.8333333333333286  0.1666666666666714
  0.5272977058819610  0.8333333333333286  0.6666666666666714
  0.5765317686792040  0.1666666666666714  0.3333333333333286
  0.5765317686792040  0.1666666666666714  0.8333333333333286
  0.5765317686792040  0.6666666666666714  0.3333333333333286
  0.5765317686792040  0.6666666666666714  0.8333333333333286
  0.6260409123542084  0.3333333333333286  0.1666666666666714
  0.6260409123542084  0.3333333333333286  0.6666666666666714
  0.6260409123542084  0.8333333333333286  0.1666666666666714
  0.6260409123542084  0.8333333333333286  0.6666666666666714
  0.6755059762238693  0.1666666666666714  0.3333333333333286
  0.6755059762238693  0.1666666666666714  0.8333333333333286
  0.6755059762238693  0.6666666666666714  0.3333333333333286
  0.6755059762238693  0.6666666666666714  0.8333333333333286
  0.7250000000000014  0.3333333333333286  0.1666666666666714
  0.7250000000000014  0.3333333333333286  0.6666666666666714
  0.7250000000000014  0.8333333333333286  0.1666666666666714
  0.7250000000000014  0.8333333333333286  0.6666666666666714
  0.7744940237761264  0.1666666666666714  0.3333333333333286
  0.7744940237761264  0.1666666666666714  0.8333333333333286
  0.7744940237761264  0.6666666666666714  0.3333333333333286
  0.7744940237761264  0.6666666666666714  0.8333333333333286
  0.8239590876457944  0.3333333333333286  0.1666666666666714
  0.8239590876457944  0.3333333333333286  0.6666666666666714
  0.8239590876457944  0.8333333333333286  0.1666666666666714
  0.8239590876457944  0.8333333333333286  0.6666666666666714
  0.8734682313207989  0.1666666666666714  0.3333333333333286
  0.8734682313207989  0.1666666666666714  0.8333333333333286
  0.8734682313207989  0.6666666666666714  0.3333333333333286
  0.8734682313207989  0.6666666666666714  0.8333333333333286
  0.9227022941180347  0.3333333333333286  0.1666666666666714
  0.9227022941180347  0.3333333333333286  0.6666666666666714
  0.9227022941180347  0.8333333333333286  0.1666666666666714
  0.9227022941180347  0.8333333333333286  0.6666666666666714
  0.4750000000000014  0.1666666666666714  0.3333333333333286
  0.4750000000000014  0.1666666666666714  0.8333333333333286
  0.4750000000000014  0.6666666666666714  0.3333333333333286
  0.4750000000000014  0.6666666666666714  0.8333333333333286
  0.9750000000000014  0.1666666666666714  0.3333333333333286
  0.9750000000000014  0.1666666666666714  0.8333333333333286
  0.9750000000000014  0.6666666666666714  0.3333333333333286
  0.9750000000000014  0.6666666666666714  0.8333333333333286
 
  0.00000000E+00  0.00000000E+00  0.00000000E+00
  0.00000000E+00  0.00000000E+00  0.00000000E+00
  0.00000000E+00  0.00000000E+00  0.00000000E+00
  0.00000000E+00  0.00000000E+00  0.00000000E+00
  0.00000000E+00  0.00000000E+00  0.00000000E+00
  0.00000000E+00  0.00000000E+00  0.00000000E+00
  0.00000000E+00  0.00000000E+00  0.00000000E+00
  0.00000000E+00  0.00000000E+00  0.00000000E+00
  0.00000000E+00  0.00000000E+00  0.00000000E+00
  0.00000000E+00  0.00000000E+00  0.00000000E+00
  0.00000000E+00  0.00000000E+00  0.00000000E+00
  0.00000000E+00  0.00000000E+00  0.00000000E+00
  0.00000000E+00  0.00000000E+00  0.00000000E+00
  0.00000000E+00  0.00000000E+00  0.00000000E+00
  0.00000000E+00  0.00000000E+00  0.00000000E+00
  0.00000000E+00  0.00000000E+00  0.00000000E+00
  0.00000000E+00  0.00000000E+00  0.00000000E+00
  0.00000000E+00  0.00000000E+00  0.00000000E+00
  0.00000000E+00  0.00000000E+00  0.00000000E+00
  0.00000000E+00  0.00000000E+00  0.00000000E+00
  0.00000000E+00  0.00000000E+00  0.00000000E+00
  0.00000000E+00  0.00000000E+00  0.00000000E+00
  0.00000000E+00  0.00000000E+00  0.00000000E+00
  0.00000000E+00  0.00000000E+00  0.00000000E+00
  0.00000000E+00  0.00000000E+00  0.00000000E+00
  0.00000000E+00  0.00000000E+00  0.00000000E+00
  0.00000000E+00  0.00000000E+00  0.00000000E+00
  0.00000000E+00  0.00000000E+00  0.00000000E+00
  0.00000000E+00  0.00000000E+00  0.00000000E+00
  0.00000000E+00  0.00000000E+00  0.00000000E+00
  0.00000000E+00  0.00000000E+00  0.00000000E+00
  0.00000000E+00  0.00000000E+00  0.00000000E+00
  0.00000000E+00  0.00000000E+00  0.00000000E+00
  0.00000000E+00  0.00000000E+00  0.00000000E+00
  0.00000000E+00  0.00000000E+00  0.00000000E+00
  0.00000000E+00  0.00000000E+00  0.00000000E+00
  0.00000000E+00  0.00000000E+00  0.00000000E+00
  0.00000000E+00  0.00000000E+00  0.00000000E+00
  0.00000000E+00  0.00000000E+00  0.00000000E+00
  0.00000000E+00  0.00000000E+00  0.00000000E+00
  0.00000000E+00  0.00000000E+00  0.00000000E+00
  0.00000000E+00  0.00000000E+00  0.00000000E+00
  0.00000000E+00  0.00000000E+00  0.00000000E+00
  0.00000000E+00  0.00000000E+00  0.00000000E+00
  0.00000000E+00  0.00000000E+00  0.00000000E+00
  0.00000000E+00  0.00000000E+00  0.00000000E+00
  0.00000000E+00  0.00000000E+00  0.00000000E+00
  0.00000000E+00  0.00000000E+00  0.00000000E+00
  0.00000000E+00  0.00000000E+00  0.00000000E+00
  0.00000000E+00  0.00000000E+00  0.00000000E+00
  0.00000000E+00  0.00000000E+00  0.00000000E+00
  0.00000000E+00  0.00000000E+00  0.00000000E+00
  0.00000000E+00  0.00000000E+00  0.00000000E+00
  0.00000000E+00  0.00000000E+00  0.00000000E+00
  0.00000000E+00  0.00000000E+00  0.00000000E+00
  0.00000000E+00  0.00000000E+00  0.00000000E+00
  0.00000000E+00  0.00000000E+00  0.00000000E+00
  0.00000000E+00  0.00000000E+00  0.00000000E+00
  0.00000000E+00  0.00000000E+00  0.00000000E+00
  0.00000000E+00  0.00000000E+00  0.00000000E+00
  0.00000000E+00  0.00000000E+00  0.00000000E+00
  0.00000000E+00  0.00000000E+00  0.00000000E+00
  0.00000000E+00  0.00000000E+00  0.00000000E+00
  0.00000000E+00  0.00000000E+00  0.00000000E+00
  0.00000000E+00  0.00000000E+00  0.00000000E+00
  0.00000000E+00  0.00000000E+00  0.00000000E+00
  0.00000000E+00  0.00000000E+00  0.00000000E+00
  0.00000000E+00  0.00000000E+00  0.00000000E+00
  0.00000000E+00  0.00000000E+00  0.00000000E+00
  0.00000000E+00  0.00000000E+00  0.00000000E+00
  0.00000000E+00  0.00000000E+00  0.00000000E+00
  0.00000000E+00  0.00000000E+00  0.00000000E+00
  0.00000000E+00  0.00000000E+00  0.00000000E+00
  0.00000000E+00  0.00000000E+00  0.00000000E+00
  0.00000000E+00  0.00000000E+00  0.00000000E+00
  0.00000000E+00  0.00000000E+00  0.00000000E+00
  0.00000000E+00  0.00000000E+00  0.00000000E+00
  0.00000000E+00  0.00000000E+00  0.00000000E+00
  0.00000000E+00  0.00000000E+00  0.00000000E+00
  0.00000000E+00  0.00000000E+00  0.00000000E+00
