generated by phonopy                    
   0.9999666655554937     
    44.3062352142634239   -0.0000000000000000   -0.0000000000000000
     0.0000000000000000    5.1280692359083409   -0.0000000000000001
     0.0000000000000000   -2.5640346179541709    4.4410382306620848
   Co   Ru
    72    16
Direct
  0.0265071568290336  0.3333333333333286  0.1666666666666714
  0.0265071568290336  0.3333333333333286  0.6666666666666714
  0.0265071568290336  0.8333333333333286  0.1666666666666714
  0.0265071568290336  0.8333333333333286  0.6666666666666714
  0.0710449424191271  0.1666666666666714  0.3333333333333286
  0.0710449424191271  0.1666666666666714  0.8333333333333286
  0.0710449424191271  0.6666666666666714  0.3333333333333286
  0.0710449424191271  0.6666666666666714  0.8333333333333286
  0.1154439576843366  0.3333333333333286  0.1666666666666714
  0.1154439576843366  0.3333333333333286  0.6666666666666714
  0.1154439576843366  0.8333333333333286  0.1666666666666714
  0.1154439576843366  0.8333333333333286  0.6666666666666714
  0.1600667924401971  0.1666666666666714  0.3333333333333286
  0.1600667924401971  0.1666666666666714  0.8333333333333286
  0.1600667924401971  0.6666666666666714  0.3333333333333286
  0.1600667924401971  0.6666666666666714  0.8333333333333286
  0.2045463261494902  0.3333333333333286  0.1666666666666714
  0.2045463261494902  0.3333333333333286  0.6666666666666714
  0.2045463261494902  0.8333333333333286  0.1666666666666714
  0.2045463261494902  0.8333333333333286  0.6666666666666714
  0.2490222602730019  0.1666666666666714  0.3333333333333286
  0.2490222602730019  0.1666666666666714  0.8333333333333286
  0.2490222602730019  0.6666666666666714  0.3333333333333286
  0.2490222602730019  0.6666666666666714  0.8333333333333286
  0.2936484188566886  0.3333333333333286  0.1666666666666714
  0.2936484188566886  0.3333333333333286  0.6666666666666714
  0.2936484188566886  0.8333333333333286  0.1666666666666714
  0.2936484188566886  0.8333333333333286  0.6666666666666714
  0.3380440586326837  0.1666666666666714  0.3333333333333286
  0.3380440586326837  0.1666666666666714  0.8333333333333286
  0.3380440586326837  0.6666666666666714  0.3333333333333286
  0.3380440586326837  0.6666666666666714  0.8333333333333286
  0.3825851292489165  0.3333333333333286  0.1666666666666714
  0.3825851292489165  0.3333333333333286  0.6666666666666714
  0.3825851292489165  0.8333333333333286  0.1666666666666714
  0.3825851292489165  0.8333333333333286  0.6666666666666714
  0.5265071568290336  0.1666666666666714  0.3333333333333286
  0.5265071568290336  0.1666666666666714  0.8333333333333286
  0.5265071568290336  0.6666666666666714  0.3333333333333286
  0.5265071568290336  0.6666666666666714  0.8333333333333286
  0.5710449424191270  0.3333333333333286  0.1666666666666714
  0.5710449424191270  0.3333333333333286  0.6666666666666714
  0.5710449424191270  0.8333333333333286  0.1666666666666714
  0.5710449424191270  0.8333333333333286  0.6666666666666714
  0.6154439576843365  0.1666666666666714  0.3333333333333286
  0.6154439576843365  0.1666666666666714  0.8333333333333286
  0.6154439576843365  0.6666666666666714  0.3333333333333286
  0.6154439576843365  0.6666666666666714  0.8333333333333286
  0.6600667924401973  0.3333333333333286  0.1666666666666714
  0.6600667924401973  0.3333333333333286  0.6666666666666714
  0.6600667924401973  0.8333333333333286  0.1666666666666714
  0.6600667924401973  0.8333333333333286  0.6666666666666714
  0.7045463261494902  0.1666666666666714  0.3333333333333286
  0.7045463261494902  0.1666666666666714  0.8333333333333286
  0.7045463261494902  0.6666666666666714  0.3333333333333286
  0.7045463261494902  0.6666666666666714  0.8333333333333286
  0.7490222602730017  0.3333333333333286  0.1666666666666714
  0.7490222602730017  0.3333333333333286  0.6666666666666714
  0.7490222602730017  0.8333333333333286  0.1666666666666714
  0.7490222602730017  0.8333333333333286  0.6666666666666714
  0.7936484188566888  0.1666666666666714  0.3333333333333286
  0.7936484188566888  0.1666666666666714  0.8333333333333286
  0.7936484188566888  0.6666666666666714  0.3333333333333286
  0.7936484188566888  0.6666666666666714  0.8333333333333286
  0.8380440586326910  0.3333333333333286  0.1666666666666714
  0.8380440586326910  0.3333333333333286  0.6666666666666714
  0.8380440586326910  0.8333333333333286  0.1666666666666714
  0.8380440586326910  0.8333333333333286  0.6666666666666714
  0.8825851292489164  0.1666666666666714  0.3333333333333286
  0.8825851292489164  0.1666666666666714  0.8333333333333286
  0.8825851292489164  0.6666666666666714  0.3333333333333286
  0.8825851292489164  0.6666666666666714  0.8333333333333286
  0.4299524206082962  0.1666666666666714  0.3333333333333286
  0.4299524206082962  0.1666666666666714  0.8333333333333286
  0.4299524206082962  0.6666666666666714  0.3333333333333286
  0.4299524206082962  0.6666666666666714  0.8333333333333286
  0.4791385368582427  0.3333333333333286  0.1666666666666714
  0.4791385368582427  0.3333333333333286  0.6666666666666714
  0.4791385368582427  0.8333333333333286  0.1666666666666714
  0.4791385368582427  0.8333333333333286  0.6666666666666714
  0.9299524206082961  0.3333333333333286  0.1666666666666714
  0.9299524206082961  0.3333333333333286  0.6666666666666714
  0.9299524206082961  0.8333333333333286  0.1666666666666714
  0.9299524206082961  0.8333333333333286  0.6666666666666714
  0.9791385368582357  0.1666666666666714  0.3333333333333286
  0.9791385368582357  0.1666666666666714  0.8333333333333286
  0.9791385368582357  0.6666666666666714  0.3333333333333286
  0.9791385368582357  0.6666666666666714  0.8333333333333286
 
  0.00000000E+00  0.00000000E+00  0.00000000E+00
  0.00000000E+00  0.00000000E+00  0.00000000E+00
  0.00000000E+00  0.00000000E+00  0.00000000E+00
  0.00000000E+00  0.00000000E+00  0.00000000E+00
  0.00000000E+00  0.00000000E+00  0.00000000E+00
  0.00000000E+00  0.00000000E+00  0.00000000E+00
  0.00000000E+00  0.00000000E+00  0.00000000E+00
  0.00000000E+00  0.00000000E+00  0.00000000E+00
  0.00000000E+00  0.00000000E+00  0.00000000E+00
  0.00000000E+00  0.00000000E+00  0.00000000E+00
  0.00000000E+00  0.00000000E+00  0.00000000E+00
  0.00000000E+00  0.00000000E+00  0.00000000E+00
  0.00000000E+00  0.00000000E+00  0.00000000E+00
  0.00000000E+00  0.00000000E+00  0.00000000E+00
  0.00000000E+00  0.00000000E+00  0.00000000E+00
  0.00000000E+00  0.00000000E+00  0.00000000E+00
  0.00000000E+00  0.00000000E+00  0.00000000E+00
  0.00000000E+00  0.00000000E+00  0.00000000E+00
  0.00000000E+00  0.00000000E+00  0.00000000E+00
  0.00000000E+00  0.00000000E+00  0.00000000E+00
  0.00000000E+00  0.00000000E+00  0.00000000E+00
  0.00000000E+00  0.00000000E+00  0.00000000E+00
  0.00000000E+00  0.00000000E+00  0.00000000E+00
  0.00000000E+00  0.00000000E+00  0.00000000E+00
  0.00000000E+00  0.00000000E+00  0.00000000E+00
  0.00000000E+00  0.00000000E+00  0.00000000E+00
  0.00000000E+00  0.00000000E+00  0.00000000E+00
  0.00000000E+00  0.00000000E+00  0.00000000E+00
  0.00000000E+00  0.00000000E+00  0.00000000E+00
  0.00000000E+00  0.00000000E+00  0.00000000E+00
  0.00000000E+00  0.00000000E+00  0.00000000E+00
  0.00000000E+00  0.00000000E+00  0.00000000E+00
  0.00000000E+00  0.00000000E+00  0.00000000E+00
  0.00000000E+00  0.00000000E+00  0.00000000E+00
  0.00000000E+00  0.00000000E+00  0.00000000E+00
  0.00000000E+00  0.00000000E+00  0.00000000E+00
  0.00000000E+00  0.00000000E+00  0.00000000E+00
  0.00000000E+00  0.00000000E+00  0.00000000E+00
  0.00000000E+00  0.00000000E+00  0.00000000E+00
  0.00000000E+00  0.00000000E+00  0.00000000E+00
  0.00000000E+00  0.00000000E+00  0.00000000E+00
  0.00000000E+00  0.00000000E+00  0.00000000E+00
  0.00000000E+00  0.00000000E+00  0.00000000E+00
  0.00000000E+00  0.00000000E+00  0.00000000E+00
  0.00000000E+00  0.00000000E+00  0.00000000E+00
  0.00000000E+00  0.00000000E+00  0.00000000E+00
  0.00000000E+00  0.00000000E+00  0.00000000E+00
  0.00000000E+00  0.00000000E+00  0.00000000E+00
  0.00000000E+00  0.00000000E+00  0.00000000E+00
  0.00000000E+00  0.00000000E+00  0.00000000E+00
  0.00000000E+00  0.00000000E+00  0.00000000E+00
  0.00000000E+00  0.00000000E+00  0.00000000E+00
  0.00000000E+00  0.00000000E+00  0.00000000E+00
  0.00000000E+00  0.00000000E+00  0.00000000E+00
  0.00000000E+00  0.00000000E+00  0.00000000E+00
  0.00000000E+00  0.00000000E+00  0.00000000E+00
  0.00000000E+00  0.00000000E+00  0.00000000E+00
  0.00000000E+00  0.00000000E+00  0.00000000E+00
  0.00000000E+00  0.00000000E+00  0.00000000E+00
  0.00000000E+00  0.00000000E+00  0.00000000E+00
  0.00000000E+00  0.00000000E+00  0.00000000E+00
  0.00000000E+00  0.00000000E+00  0.00000000E+00
  0.00000000E+00  0.00000000E+00  0.00000000E+00
  0.00000000E+00  0.00000000E+00  0.00000000E+00
  0.00000000E+00  0.00000000E+00  0.00000000E+00
  0.00000000E+00  0.00000000E+00  0.00000000E+00
  0.00000000E+00  0.00000000E+00  0.00000000E+00
  0.00000000E+00  0.00000000E+00  0.00000000E+00
  0.00000000E+00  0.00000000E+00  0.00000000E+00
  0.00000000E+00  0.00000000E+00  0.00000000E+00
  0.00000000E+00  0.00000000E+00  0.00000000E+00
  0.00000000E+00  0.00000000E+00  0.00000000E+00
  0.00000000E+00  0.00000000E+00  0.00000000E+00
  0.00000000E+00  0.00000000E+00  0.00000000E+00
  0.00000000E+00  0.00000000E+00  0.00000000E+00
  0.00000000E+00  0.00000000E+00  0.00000000E+00
  0.00000000E+00  0.00000000E+00  0.00000000E+00
  0.00000000E+00  0.00000000E+00  0.00000000E+00
  0.00000000E+00  0.00000000E+00  0.00000000E+00
  0.00000000E+00  0.00000000E+00  0.00000000E+00
  0.00000000E+00  0.00000000E+00  0.00000000E+00
  0.00000000E+00  0.00000000E+00  0.00000000E+00
  0.00000000E+00  0.00000000E+00  0.00000000E+00
  0.00000000E+00  0.00000000E+00  0.00000000E+00
  0.00000000E+00  0.00000000E+00  0.00000000E+00
  0.00000000E+00  0.00000000E+00  0.00000000E+00
  0.00000000E+00  0.00000000E+00  0.00000000E+00
  0.00000000E+00  0.00000000E+00  0.00000000E+00
