generated by phonopy                    
    1.009966995621177     
    44.3266647102716647   -0.0000000000000000   -0.0000000000000000
    -0.0000000000000000    5.1268873745560732   -0.0000000000000001
     0.0000000000000000   -2.5634436872780371    4.4400147087072694
   Co   Ru
    72    16
Direct
  0.0262664940977927  0.3333333333333286  0.1666666666666714
  0.0262664940977927  0.3333333333333286  0.6666666666666714
  0.0262664940977927  0.8333333333333286  0.1666666666666714
  0.0262664940977927  0.8333333333333286  0.6666666666666714
  0.0709027900999764  0.1666666666666714  0.3333333333333286
  0.0709027900999764  0.1666666666666714  0.8333333333333286
  0.0709027900999764  0.6666666666666714  0.3333333333333286
  0.0709027900999764  0.6666666666666714  0.8333333333333286
  0.1153541177460519  0.3333333333333286  0.1666666666666714
  0.1153541177460519  0.3333333333333286  0.6666666666666714
  0.1153541177460519  0.8333333333333286  0.1666666666666714
  0.1153541177460519  0.8333333333333286  0.6666666666666714
  0.1600328445459303  0.1666666666666714  0.3333333333333286
  0.1600328445459303  0.1666666666666714  0.8333333333333286
  0.1600328445459303  0.6666666666666714  0.3333333333333286
  0.1600328445459303  0.6666666666666714  0.8333333333333286
  0.2045463261494902  0.3333333333333286  0.1666666666666714
  0.2045463261494902  0.3333333333333286  0.6666666666666714
  0.2045463261494902  0.8333333333333286  0.1666666666666714
  0.2045463261494902  0.8333333333333286  0.6666666666666714
  0.2490562081672687  0.1666666666666714  0.3333333333333286
  0.2490562081672687  0.1666666666666714  0.8333333333333286
  0.2490562081672687  0.6666666666666714  0.3333333333333286
  0.2490562081672687  0.6666666666666714  0.8333333333333286
  0.2937382587949732  0.3333333333333286  0.1666666666666714
  0.2937382587949732  0.3333333333333286  0.6666666666666714
  0.2937382587949732  0.8333333333333286  0.1666666666666714
  0.2937382587949732  0.8333333333333286  0.6666666666666714
  0.3381862109518346  0.1666666666666714  0.3333333333333286
  0.3381862109518346  0.1666666666666714  0.8333333333333286
  0.3381862109518346  0.6666666666666714  0.3333333333333286
  0.3381862109518346  0.6666666666666714  0.8333333333333286
  0.3828257919801572  0.3333333333333286  0.1666666666666714
  0.3828257919801572  0.3333333333333286  0.6666666666666714
  0.3828257919801572  0.8333333333333286  0.1666666666666714
  0.3828257919801572  0.8333333333333286  0.6666666666666714
  0.5262664940977926  0.1666666666666714  0.3333333333333286
  0.5262664940977926  0.1666666666666714  0.8333333333333286
  0.5262664940977926  0.6666666666666714  0.3333333333333286
  0.5262664940977926  0.6666666666666714  0.8333333333333286
  0.5709027900999761  0.3333333333333286  0.1666666666666714
  0.5709027900999761  0.3333333333333286  0.6666666666666714
  0.5709027900999761  0.8333333333333286  0.1666666666666714
  0.5709027900999761  0.8333333333333286  0.6666666666666714
  0.6153541177460516  0.1666666666666714  0.3333333333333286
  0.6153541177460516  0.1666666666666714  0.8333333333333286
  0.6153541177460516  0.6666666666666714  0.3333333333333286
  0.6153541177460516  0.6666666666666714  0.8333333333333286
  0.6600328445459303  0.3333333333333286  0.1666666666666714
  0.6600328445459303  0.3333333333333286  0.6666666666666714
  0.6600328445459303  0.8333333333333286  0.1666666666666714
  0.6600328445459303  0.8333333333333286  0.6666666666666714
  0.7045463261494902  0.1666666666666714  0.3333333333333286
  0.7045463261494902  0.1666666666666714  0.8333333333333286
  0.7045463261494902  0.6666666666666714  0.3333333333333286
  0.7045463261494902  0.6666666666666714  0.8333333333333286
  0.7490562081672687  0.3333333333333286  0.1666666666666714
  0.7490562081672687  0.3333333333333286  0.6666666666666714
  0.7490562081672687  0.8333333333333286  0.1666666666666714
  0.7490562081672687  0.8333333333333286  0.6666666666666714
  0.7937382587949736  0.1666666666666714  0.3333333333333286
  0.7937382587949736  0.1666666666666714  0.8333333333333286
  0.7937382587949736  0.6666666666666714  0.3333333333333286
  0.7937382587949736  0.6666666666666714  0.8333333333333286
  0.8381862109518419  0.3333333333333286  0.1666666666666714
  0.8381862109518419  0.3333333333333286  0.6666666666666714
  0.8381862109518419  0.8333333333333286  0.1666666666666714
  0.8381862109518419  0.8333333333333286  0.6666666666666714
  0.8828257919801574  0.1666666666666714  0.3333333333333286
  0.8828257919801574  0.1666666666666714  0.8333333333333286
  0.8828257919801574  0.6666666666666714  0.3333333333333286
  0.8828257919801574  0.6666666666666714  0.8333333333333286
  0.4301829527431047  0.1666666666666714  0.3333333333333286
  0.4301829527431047  0.1666666666666714  0.8333333333333286
  0.4301829527431047  0.6666666666666714  0.3333333333333286
  0.4301829527431047  0.6666666666666714  0.8333333333333286
  0.4789080047234342  0.3333333333333286  0.1666666666666714
  0.4789080047234342  0.3333333333333286  0.6666666666666714
  0.4789080047234342  0.8333333333333286  0.1666666666666714
  0.4789080047234342  0.8333333333333286  0.6666666666666714
  0.9301829527431046  0.3333333333333286  0.1666666666666714
  0.9301829527431046  0.3333333333333286  0.6666666666666714
  0.9301829527431046  0.8333333333333286  0.1666666666666714
  0.9301829527431046  0.8333333333333286  0.6666666666666714
  0.9789080047234272  0.1666666666666714  0.3333333333333286
  0.9789080047234272  0.1666666666666714  0.8333333333333286
  0.9789080047234272  0.6666666666666714  0.3333333333333286
  0.9789080047234272  0.6666666666666714  0.8333333333333286
 
  0.00000000E+00  0.00000000E+00  0.00000000E+00
  0.00000000E+00  0.00000000E+00  0.00000000E+00
  0.00000000E+00  0.00000000E+00  0.00000000E+00
  0.00000000E+00  0.00000000E+00  0.00000000E+00
  0.00000000E+00  0.00000000E+00  0.00000000E+00
  0.00000000E+00  0.00000000E+00  0.00000000E+00
  0.00000000E+00  0.00000000E+00  0.00000000E+00
  0.00000000E+00  0.00000000E+00  0.00000000E+00
  0.00000000E+00  0.00000000E+00  0.00000000E+00
  0.00000000E+00  0.00000000E+00  0.00000000E+00
  0.00000000E+00  0.00000000E+00  0.00000000E+00
  0.00000000E+00  0.00000000E+00  0.00000000E+00
  0.00000000E+00  0.00000000E+00  0.00000000E+00
  0.00000000E+00  0.00000000E+00  0.00000000E+00
  0.00000000E+00  0.00000000E+00  0.00000000E+00
  0.00000000E+00  0.00000000E+00  0.00000000E+00
  0.00000000E+00  0.00000000E+00  0.00000000E+00
  0.00000000E+00  0.00000000E+00  0.00000000E+00
  0.00000000E+00  0.00000000E+00  0.00000000E+00
  0.00000000E+00  0.00000000E+00  0.00000000E+00
  0.00000000E+00  0.00000000E+00  0.00000000E+00
  0.00000000E+00  0.00000000E+00  0.00000000E+00
  0.00000000E+00  0.00000000E+00  0.00000000E+00
  0.00000000E+00  0.00000000E+00  0.00000000E+00
  0.00000000E+00  0.00000000E+00  0.00000000E+00
  0.00000000E+00  0.00000000E+00  0.00000000E+00
  0.00000000E+00  0.00000000E+00  0.00000000E+00
  0.00000000E+00  0.00000000E+00  0.00000000E+00
  0.00000000E+00  0.00000000E+00  0.00000000E+00
  0.00000000E+00  0.00000000E+00  0.00000000E+00
  0.00000000E+00  0.00000000E+00  0.00000000E+00
  0.00000000E+00  0.00000000E+00  0.00000000E+00
  0.00000000E+00  0.00000000E+00  0.00000000E+00
  0.00000000E+00  0.00000000E+00  0.00000000E+00
  0.00000000E+00  0.00000000E+00  0.00000000E+00
  0.00000000E+00  0.00000000E+00  0.00000000E+00
  0.00000000E+00  0.00000000E+00  0.00000000E+00
  0.00000000E+00  0.00000000E+00  0.00000000E+00
  0.00000000E+00  0.00000000E+00  0.00000000E+00
  0.00000000E+00  0.00000000E+00  0.00000000E+00
  0.00000000E+00  0.00000000E+00  0.00000000E+00
  0.00000000E+00  0.00000000E+00  0.00000000E+00
  0.00000000E+00  0.00000000E+00  0.00000000E+00
  0.00000000E+00  0.00000000E+00  0.00000000E+00
  0.00000000E+00  0.00000000E+00  0.00000000E+00
  0.00000000E+00  0.00000000E+00  0.00000000E+00
  0.00000000E+00  0.00000000E+00  0.00000000E+00
  0.00000000E+00  0.00000000E+00  0.00000000E+00
  0.00000000E+00  0.00000000E+00  0.00000000E+00
  0.00000000E+00  0.00000000E+00  0.00000000E+00
  0.00000000E+00  0.00000000E+00  0.00000000E+00
  0.00000000E+00  0.00000000E+00  0.00000000E+00
  0.00000000E+00  0.00000000E+00  0.00000000E+00
  0.00000000E+00  0.00000000E+00  0.00000000E+00
  0.00000000E+00  0.00000000E+00  0.00000000E+00
  0.00000000E+00  0.00000000E+00  0.00000000E+00
  0.00000000E+00  0.00000000E+00  0.00000000E+00
  0.00000000E+00  0.00000000E+00  0.00000000E+00
  0.00000000E+00  0.00000000E+00  0.00000000E+00
  0.00000000E+00  0.00000000E+00  0.00000000E+00
  0.00000000E+00  0.00000000E+00  0.00000000E+00
  0.00000000E+00  0.00000000E+00  0.00000000E+00
  0.00000000E+00  0.00000000E+00  0.00000000E+00
  0.00000000E+00  0.00000000E+00  0.00000000E+00
  0.00000000E+00  0.00000000E+00  0.00000000E+00
  0.00000000E+00  0.00000000E+00  0.00000000E+00
  0.00000000E+00  0.00000000E+00  0.00000000E+00
  0.00000000E+00  0.00000000E+00  0.00000000E+00
  0.00000000E+00  0.00000000E+00  0.00000000E+00
  0.00000000E+00  0.00000000E+00  0.00000000E+00
  0.00000000E+00  0.00000000E+00  0.00000000E+00
  0.00000000E+00  0.00000000E+00  0.00000000E+00
  0.00000000E+00  0.00000000E+00  0.00000000E+00
  0.00000000E+00  0.00000000E+00  0.00000000E+00
  0.00000000E+00  0.00000000E+00  0.00000000E+00
  0.00000000E+00  0.00000000E+00  0.00000000E+00
  0.00000000E+00  0.00000000E+00  0.00000000E+00
  0.00000000E+00  0.00000000E+00  0.00000000E+00
  0.00000000E+00  0.00000000E+00  0.00000000E+00
  0.00000000E+00  0.00000000E+00  0.00000000E+00
  0.00000000E+00  0.00000000E+00  0.00000000E+00
  0.00000000E+00  0.00000000E+00  0.00000000E+00
  0.00000000E+00  0.00000000E+00  0.00000000E+00
  0.00000000E+00  0.00000000E+00  0.00000000E+00
  0.00000000E+00  0.00000000E+00  0.00000000E+00
  0.00000000E+00  0.00000000E+00  0.00000000E+00
  0.00000000E+00  0.00000000E+00  0.00000000E+00
  0.00000000E+00  0.00000000E+00  0.00000000E+00
