generated by phonopy                    
    1.006655604652112     
    48.3278271077174040   -0.0000000000000000   -0.0000000000000000
    -0.0000000000000000    5.1173094084217725   -0.0000000000000001
     0.0000000000000000   -2.5586547042108858    4.4317199467183759
   Co   Ru
    80    16
Direct
  0.0242980018421658  0.3333333333333286  0.1666666666666714
  0.0242980018421658  0.3333333333333286  0.6666666666666714
  0.0242980018421658  0.8333333333333286  0.1666666666666714
  0.0242980018421658  0.8333333333333286  0.6666666666666714
  0.0652172273415551  0.1666666666666714  0.3333333333333286
  0.0652172273415551  0.1666666666666714  0.8333333333333286
  0.0652172273415551  0.6666666666666714  0.3333333333333286
  0.0652172273415551  0.6666666666666714  0.8333333333333286
  0.1060414143933718  0.3333333333333286  0.1666666666666714
  0.1060414143933718  0.3333333333333286  0.6666666666666714
  0.1060414143933718  0.8333333333333286  0.1666666666666714
  0.1060414143933718  0.8333333333333286  0.6666666666666714
  0.1470283883834277  0.1666666666666714  0.3333333333333286
  0.1470283883834277  0.1666666666666714  0.8333333333333286
  0.1470283883834277  0.6666666666666714  0.3333333333333286
  0.1470283883834277  0.6666666666666714  0.8333333333333286
  0.1878848188974249  0.3333333333333286  0.1666666666666714
  0.1878848188974249  0.3333333333333286  0.6666666666666714
  0.1878848188974249  0.8333333333333286  0.1666666666666714
  0.1878848188974249  0.8333333333333286  0.6666666666666714
  0.2287824453894896  0.1666666666666714  0.3333333333333286
  0.2287824453894896  0.1666666666666714  0.8333333333333286
  0.2287824453894896  0.6666666666666714  0.3333333333333286
  0.2287824453894896  0.6666666666666714  0.8333333333333286
  0.2696383250177284  0.3333333333333286  0.1666666666666714
  0.2696383250177284  0.3333333333333286  0.6666666666666714
  0.2696383250177284  0.8333333333333286  0.1666666666666714
  0.2696383250177284  0.8333333333333286  0.6666666666666714
  0.3106247506421577  0.1666666666666714  0.3333333333333286
  0.3106247506421577  0.1666666666666714  0.8333333333333286
  0.3106247506421577  0.6666666666666714  0.3333333333333286
  0.3106247506421577  0.6666666666666714  0.8333333333333286
  0.3514489385407850  0.3333333333333286  0.1666666666666714
  0.3514489385407850  0.3333333333333286  0.6666666666666714
  0.3514489385407850  0.8333333333333286  0.1666666666666714
  0.3514489385407850  0.8333333333333286  0.6666666666666714
  0.3923686218361302  0.1666666666666714  0.3333333333333286
  0.3923686218361302  0.1666666666666714  0.8333333333333286
  0.3923686218361302  0.6666666666666714  0.3333333333333286
  0.3923686218361302  0.6666666666666714  0.8333333333333286
  0.5242980018421589  0.3333333333333286  0.1666666666666714
  0.5242980018421589  0.3333333333333286  0.6666666666666714
  0.5242980018421589  0.8333333333333286  0.1666666666666714
  0.5242980018421589  0.8333333333333286  0.6666666666666714
  0.5652172273415552  0.1666666666666714  0.3333333333333286
  0.5652172273415552  0.1666666666666714  0.8333333333333286
  0.5652172273415552  0.6666666666666714  0.3333333333333286
  0.5652172273415552  0.6666666666666714  0.8333333333333286
  0.6060414143933790  0.3333333333333286  0.1666666666666714
  0.6060414143933790  0.3333333333333286  0.6666666666666714
  0.6060414143933790  0.8333333333333286  0.1666666666666714
  0.6060414143933790  0.8333333333333286  0.6666666666666714
  0.6470283883834277  0.1666666666666714  0.3333333333333286
  0.6470283883834277  0.1666666666666714  0.8333333333333286
  0.6470283883834277  0.6666666666666714  0.3333333333333286
  0.6470283883834277  0.6666666666666714  0.8333333333333286
  0.6878848188974322  0.3333333333333286  0.1666666666666714
  0.6878848188974322  0.3333333333333286  0.6666666666666714
  0.6878848188974322  0.8333333333333286  0.1666666666666714
  0.6878848188974322  0.8333333333333286  0.6666666666666714
  0.7287824453894964  0.1666666666666714  0.3333333333333286
  0.7287824453894964  0.1666666666666714  0.8333333333333286
  0.7287824453894964  0.6666666666666714  0.3333333333333286
  0.7287824453894964  0.6666666666666714  0.8333333333333286
  0.7696383250177213  0.3333333333333286  0.1666666666666714
  0.7696383250177213  0.3333333333333286  0.6666666666666714
  0.7696383250177213  0.8333333333333286  0.1666666666666714
  0.7696383250177213  0.8333333333333286  0.6666666666666714
  0.8106247506421576  0.1666666666666714  0.3333333333333286
  0.8106247506421576  0.1666666666666714  0.8333333333333286
  0.8106247506421576  0.6666666666666714  0.3333333333333286
  0.8106247506421576  0.6666666666666714  0.8333333333333286
  0.8514489385407848  0.3333333333333286  0.1666666666666714
  0.8514489385407848  0.3333333333333286  0.6666666666666714
  0.8514489385407848  0.8333333333333286  0.1666666666666714
  0.8514489385407848  0.8333333333333286  0.6666666666666714
  0.8923686218361299  0.1666666666666714  0.3333333333333286
  0.8923686218361299  0.1666666666666714  0.8333333333333286
  0.8923686218361299  0.6666666666666714  0.3333333333333286
  0.8923686218361299  0.6666666666666714  0.8333333333333286
  0.4358359115009137  0.3333333333333286  0.1666666666666714
  0.4358359115009137  0.3333333333333286  0.6666666666666714
  0.4358359115009137  0.8333333333333286  0.1666666666666714
  0.4358359115009137  0.8333333333333286  0.6666666666666714
  0.4808311562148361  0.1666666666666714  0.3333333333333286
  0.4808311562148361  0.1666666666666714  0.8333333333333286
  0.4808311562148361  0.6666666666666714  0.3333333333333286
  0.4808311562148361  0.6666666666666714  0.8333333333333286
  0.9358359115009134  0.3333333333333286  0.1666666666666714
  0.9358359115009134  0.3333333333333286  0.6666666666666714
  0.9358359115009134  0.8333333333333286  0.1666666666666714
  0.9358359115009134  0.8333333333333286  0.6666666666666714
  0.9808311562148364  0.1666666666666714  0.3333333333333286
  0.9808311562148364  0.1666666666666714  0.8333333333333286
  0.9808311562148364  0.6666666666666714  0.3333333333333286
  0.9808311562148364  0.6666666666666714  0.8333333333333286
 
  0.00000000E+00  0.00000000E+00  0.00000000E+00
  0.00000000E+00  0.00000000E+00  0.00000000E+00
  0.00000000E+00  0.00000000E+00  0.00000000E+00
  0.00000000E+00  0.00000000E+00  0.00000000E+00
  0.00000000E+00  0.00000000E+00  0.00000000E+00
  0.00000000E+00  0.00000000E+00  0.00000000E+00
  0.00000000E+00  0.00000000E+00  0.00000000E+00
  0.00000000E+00  0.00000000E+00  0.00000000E+00
  0.00000000E+00  0.00000000E+00  0.00000000E+00
  0.00000000E+00  0.00000000E+00  0.00000000E+00
  0.00000000E+00  0.00000000E+00  0.00000000E+00
  0.00000000E+00  0.00000000E+00  0.00000000E+00
  0.00000000E+00  0.00000000E+00  0.00000000E+00
  0.00000000E+00  0.00000000E+00  0.00000000E+00
  0.00000000E+00  0.00000000E+00  0.00000000E+00
  0.00000000E+00  0.00000000E+00  0.00000000E+00
  0.00000000E+00  0.00000000E+00  0.00000000E+00
  0.00000000E+00  0.00000000E+00  0.00000000E+00
  0.00000000E+00  0.00000000E+00  0.00000000E+00
  0.00000000E+00  0.00000000E+00  0.00000000E+00
  0.00000000E+00  0.00000000E+00  0.00000000E+00
  0.00000000E+00  0.00000000E+00  0.00000000E+00
  0.00000000E+00  0.00000000E+00  0.00000000E+00
  0.00000000E+00  0.00000000E+00  0.00000000E+00
  0.00000000E+00  0.00000000E+00  0.00000000E+00
  0.00000000E+00  0.00000000E+00  0.00000000E+00
  0.00000000E+00  0.00000000E+00  0.00000000E+00
  0.00000000E+00  0.00000000E+00  0.00000000E+00
  0.00000000E+00  0.00000000E+00  0.00000000E+00
  0.00000000E+00  0.00000000E+00  0.00000000E+00
  0.00000000E+00  0.00000000E+00  0.00000000E+00
  0.00000000E+00  0.00000000E+00  0.00000000E+00
  0.00000000E+00  0.00000000E+00  0.00000000E+00
  0.00000000E+00  0.00000000E+00  0.00000000E+00
  0.00000000E+00  0.00000000E+00  0.00000000E+00
  0.00000000E+00  0.00000000E+00  0.00000000E+00
  0.00000000E+00  0.00000000E+00  0.00000000E+00
  0.00000000E+00  0.00000000E+00  0.00000000E+00
  0.00000000E+00  0.00000000E+00  0.00000000E+00
  0.00000000E+00  0.00000000E+00  0.00000000E+00
  0.00000000E+00  0.00000000E+00  0.00000000E+00
  0.00000000E+00  0.00000000E+00  0.00000000E+00
  0.00000000E+00  0.00000000E+00  0.00000000E+00
  0.00000000E+00  0.00000000E+00  0.00000000E+00
  0.00000000E+00  0.00000000E+00  0.00000000E+00
  0.00000000E+00  0.00000000E+00  0.00000000E+00
  0.00000000E+00  0.00000000E+00  0.00000000E+00
  0.00000000E+00  0.00000000E+00  0.00000000E+00
  0.00000000E+00  0.00000000E+00  0.00000000E+00
  0.00000000E+00  0.00000000E+00  0.00000000E+00
  0.00000000E+00  0.00000000E+00  0.00000000E+00
  0.00000000E+00  0.00000000E+00  0.00000000E+00
  0.00000000E+00  0.00000000E+00  0.00000000E+00
  0.00000000E+00  0.00000000E+00  0.00000000E+00
  0.00000000E+00  0.00000000E+00  0.00000000E+00
  0.00000000E+00  0.00000000E+00  0.00000000E+00
  0.00000000E+00  0.00000000E+00  0.00000000E+00
  0.00000000E+00  0.00000000E+00  0.00000000E+00
  0.00000000E+00  0.00000000E+00  0.00000000E+00
  0.00000000E+00  0.00000000E+00  0.00000000E+00
  0.00000000E+00  0.00000000E+00  0.00000000E+00
  0.00000000E+00  0.00000000E+00  0.00000000E+00
  0.00000000E+00  0.00000000E+00  0.00000000E+00
  0.00000000E+00  0.00000000E+00  0.00000000E+00
  0.00000000E+00  0.00000000E+00  0.00000000E+00
  0.00000000E+00  0.00000000E+00  0.00000000E+00
  0.00000000E+00  0.00000000E+00  0.00000000E+00
  0.00000000E+00  0.00000000E+00  0.00000000E+00
  0.00000000E+00  0.00000000E+00  0.00000000E+00
  0.00000000E+00  0.00000000E+00  0.00000000E+00
  0.00000000E+00  0.00000000E+00  0.00000000E+00
  0.00000000E+00  0.00000000E+00  0.00000000E+00
  0.00000000E+00  0.00000000E+00  0.00000000E+00
  0.00000000E+00  0.00000000E+00  0.00000000E+00
  0.00000000E+00  0.00000000E+00  0.00000000E+00
  0.00000000E+00  0.00000000E+00  0.00000000E+00
  0.00000000E+00  0.00000000E+00  0.00000000E+00
  0.00000000E+00  0.00000000E+00  0.00000000E+00
  0.00000000E+00  0.00000000E+00  0.00000000E+00
  0.00000000E+00  0.00000000E+00  0.00000000E+00
  0.00000000E+00  0.00000000E+00  0.00000000E+00
  0.00000000E+00  0.00000000E+00  0.00000000E+00
  0.00000000E+00  0.00000000E+00  0.00000000E+00
  0.00000000E+00  0.00000000E+00  0.00000000E+00
  0.00000000E+00  0.00000000E+00  0.00000000E+00
  0.00000000E+00  0.00000000E+00  0.00000000E+00
  0.00000000E+00  0.00000000E+00  0.00000000E+00
  0.00000000E+00  0.00000000E+00  0.00000000E+00
  0.00000000E+00  0.00000000E+00  0.00000000E+00
  0.00000000E+00  0.00000000E+00  0.00000000E+00
  0.00000000E+00  0.00000000E+00  0.00000000E+00
  0.00000000E+00  0.00000000E+00  0.00000000E+00
  0.00000000E+00  0.00000000E+00  0.00000000E+00
  0.00000000E+00  0.00000000E+00  0.00000000E+00
  0.00000000E+00  0.00000000E+00  0.00000000E+00
  0.00000000E+00  0.00000000E+00  0.00000000E+00
