generated by phonopy                    
   0.9965883740445293     
    48.3177827848914774    0.0000000000000000    0.0000000000000000
     0.0000000000000000    5.1178412750943991   -0.0000000000000000
    -0.0000000000000000   -2.5589206375471987    4.4321805567682961
   Co   Ru
    80    16
Direct
  0.0244806123687731  0.3333333333333286  0.1666666666666714
  0.0244806123687731  0.3333333333333286  0.6666666666666714
  0.0244806123687731  0.8333333333333286  0.1666666666666714
  0.0244806123687731  0.8333333333333286  0.6666666666666714
  0.0652887228326125  0.1666666666666714  0.3333333333333286
  0.0652887228326125  0.1666666666666714  0.8333333333333286
  0.0652887228326125  0.6666666666666714  0.3333333333333286
  0.0652887228326125  0.6666666666666714  0.8333333333333286
  0.1060892559429355  0.3333333333333286  0.1666666666666714
  0.1060892559429355  0.3333333333333286  0.6666666666666714
  0.1060892559429355  0.8333333333333286  0.1666666666666714
  0.1060892559429355  0.8333333333333286  0.6666666666666714
  0.1470268987494216  0.1666666666666714  0.3333333333333286
  0.1470268987494216  0.1666666666666714  0.8333333333333286
  0.1470268987494216  0.6666666666666714  0.3333333333333286
  0.1470268987494216  0.6666666666666714  0.8333333333333286
  0.1879037639510331  0.3333333333333286  0.1666666666666714
  0.1879037639510331  0.3333333333333286  0.6666666666666714
  0.1879037639510331  0.8333333333333286  0.1666666666666714
  0.1879037639510331  0.8333333333333286  0.6666666666666714
  0.2287635003358875  0.1666666666666714  0.3333333333333286
  0.2287635003358875  0.1666666666666714  0.8333333333333286
  0.2287635003358875  0.6666666666666714  0.3333333333333286
  0.2287635003358875  0.6666666666666714  0.8333333333333286
  0.2696398146517328  0.3333333333333286  0.1666666666666714
  0.2696398146517328  0.3333333333333286  0.6666666666666714
  0.2696398146517328  0.8333333333333286  0.1666666666666714
  0.2696398146517328  0.8333333333333286  0.6666666666666714
  0.3105769090925959  0.1666666666666714  0.3333333333333286
  0.3105769090925959  0.1666666666666714  0.8333333333333286
  0.3105769090925959  0.6666666666666714  0.3333333333333286
  0.3105769090925959  0.6666666666666714  0.8333333333333286
  0.3513774430497273  0.3333333333333286  0.1666666666666714
  0.3513774430497273  0.3333333333333286  0.6666666666666714
  0.3513774430497273  0.8333333333333286  0.1666666666666714
  0.3513774430497273  0.8333333333333286  0.6666666666666714
  0.3921860113095194  0.1666666666666714  0.3333333333333286
  0.3921860113095194  0.1666666666666714  0.8333333333333286
  0.3921860113095194  0.6666666666666714  0.3333333333333286
  0.3921860113095194  0.6666666666666714  0.8333333333333286
  0.5244806123687729  0.3333333333333286  0.1666666666666714
  0.5244806123687729  0.3333333333333286  0.6666666666666714
  0.5244806123687729  0.8333333333333286  0.1666666666666714
  0.5244806123687729  0.8333333333333286  0.6666666666666714
  0.5652887228326123  0.1666666666666714  0.3333333333333286
  0.5652887228326123  0.1666666666666714  0.8333333333333286
  0.5652887228326123  0.6666666666666714  0.3333333333333286
  0.5652887228326123  0.6666666666666714  0.8333333333333286
  0.6060892559429425  0.3333333333333286  0.1666666666666714
  0.6060892559429425  0.3333333333333286  0.6666666666666714
  0.6060892559429425  0.8333333333333286  0.1666666666666714
  0.6060892559429425  0.8333333333333286  0.6666666666666714
  0.6470268987494215  0.1666666666666714  0.3333333333333286
  0.6470268987494215  0.1666666666666714  0.8333333333333286
  0.6470268987494215  0.6666666666666714  0.3333333333333286
  0.6470268987494215  0.6666666666666714  0.8333333333333286
  0.6879037639510404  0.3333333333333286  0.1666666666666714
  0.6879037639510404  0.3333333333333286  0.6666666666666714
  0.6879037639510404  0.8333333333333286  0.1666666666666714
  0.6879037639510404  0.8333333333333286  0.6666666666666714
  0.7287635003358873  0.1666666666666714  0.3333333333333286
  0.7287635003358873  0.1666666666666714  0.8333333333333286
  0.7287635003358873  0.6666666666666714  0.3333333333333286
  0.7287635003358873  0.6666666666666714  0.8333333333333286
  0.7696398146517256  0.3333333333333286  0.1666666666666714
  0.7696398146517256  0.3333333333333286  0.6666666666666714
  0.7696398146517256  0.8333333333333286  0.1666666666666714
  0.7696398146517256  0.8333333333333286  0.6666666666666714
  0.8105769090925962  0.1666666666666714  0.3333333333333286
  0.8105769090925962  0.1666666666666714  0.8333333333333286
  0.8105769090925962  0.6666666666666714  0.3333333333333286
  0.8105769090925962  0.6666666666666714  0.8333333333333286
  0.8513774430497275  0.3333333333333286  0.1666666666666714
  0.8513774430497275  0.3333333333333286  0.6666666666666714
  0.8513774430497275  0.8333333333333286  0.1666666666666714
  0.8513774430497275  0.8333333333333286  0.6666666666666714
  0.8921860113095190  0.1666666666666714  0.3333333333333286
  0.8921860113095190  0.1666666666666714  0.8333333333333286
  0.8921860113095190  0.6666666666666714  0.3333333333333286
  0.8921860113095190  0.6666666666666714  0.8333333333333286
  0.4356376567507737  0.3333333333333286  0.1666666666666714
  0.4356376567507737  0.3333333333333286  0.6666666666666714
  0.4356376567507737  0.8333333333333286  0.1666666666666714
  0.4356376567507737  0.8333333333333286  0.6666666666666714
  0.4810294109649806  0.1666666666666714  0.3333333333333286
  0.4810294109649806  0.1666666666666714  0.8333333333333286
  0.4810294109649806  0.6666666666666714  0.3333333333333286
  0.4810294109649806  0.6666666666666714  0.8333333333333286
  0.9356376567507734  0.3333333333333286  0.1666666666666714
  0.9356376567507734  0.3333333333333286  0.6666666666666714
  0.9356376567507734  0.8333333333333286  0.1666666666666714
  0.9356376567507734  0.8333333333333286  0.6666666666666714
  0.9810294109649803  0.1666666666666714  0.3333333333333286
  0.9810294109649803  0.1666666666666714  0.8333333333333286
  0.9810294109649803  0.6666666666666714  0.3333333333333286
  0.9810294109649803  0.6666666666666714  0.8333333333333286
 
  0.00000000E+00  0.00000000E+00  0.00000000E+00
  0.00000000E+00  0.00000000E+00  0.00000000E+00
  0.00000000E+00  0.00000000E+00  0.00000000E+00
  0.00000000E+00  0.00000000E+00  0.00000000E+00
  0.00000000E+00  0.00000000E+00  0.00000000E+00
  0.00000000E+00  0.00000000E+00  0.00000000E+00
  0.00000000E+00  0.00000000E+00  0.00000000E+00
  0.00000000E+00  0.00000000E+00  0.00000000E+00
  0.00000000E+00  0.00000000E+00  0.00000000E+00
  0.00000000E+00  0.00000000E+00  0.00000000E+00
  0.00000000E+00  0.00000000E+00  0.00000000E+00
  0.00000000E+00  0.00000000E+00  0.00000000E+00
  0.00000000E+00  0.00000000E+00  0.00000000E+00
  0.00000000E+00  0.00000000E+00  0.00000000E+00
  0.00000000E+00  0.00000000E+00  0.00000000E+00
  0.00000000E+00  0.00000000E+00  0.00000000E+00
  0.00000000E+00  0.00000000E+00  0.00000000E+00
  0.00000000E+00  0.00000000E+00  0.00000000E+00
  0.00000000E+00  0.00000000E+00  0.00000000E+00
  0.00000000E+00  0.00000000E+00  0.00000000E+00
  0.00000000E+00  0.00000000E+00  0.00000000E+00
  0.00000000E+00  0.00000000E+00  0.00000000E+00
  0.00000000E+00  0.00000000E+00  0.00000000E+00
  0.00000000E+00  0.00000000E+00  0.00000000E+00
  0.00000000E+00  0.00000000E+00  0.00000000E+00
  0.00000000E+00  0.00000000E+00  0.00000000E+00
  0.00000000E+00  0.00000000E+00  0.00000000E+00
  0.00000000E+00  0.00000000E+00  0.00000000E+00
  0.00000000E+00  0.00000000E+00  0.00000000E+00
  0.00000000E+00  0.00000000E+00  0.00000000E+00
  0.00000000E+00  0.00000000E+00  0.00000000E+00
  0.00000000E+00  0.00000000E+00  0.00000000E+00
  0.00000000E+00  0.00000000E+00  0.00000000E+00
  0.00000000E+00  0.00000000E+00  0.00000000E+00
  0.00000000E+00  0.00000000E+00  0.00000000E+00
  0.00000000E+00  0.00000000E+00  0.00000000E+00
  0.00000000E+00  0.00000000E+00  0.00000000E+00
  0.00000000E+00  0.00000000E+00  0.00000000E+00
  0.00000000E+00  0.00000000E+00  0.00000000E+00
  0.00000000E+00  0.00000000E+00  0.00000000E+00
  0.00000000E+00  0.00000000E+00  0.00000000E+00
  0.00000000E+00  0.00000000E+00  0.00000000E+00
  0.00000000E+00  0.00000000E+00  0.00000000E+00
  0.00000000E+00  0.00000000E+00  0.00000000E+00
  0.00000000E+00  0.00000000E+00  0.00000000E+00
  0.00000000E+00  0.00000000E+00  0.00000000E+00
  0.00000000E+00  0.00000000E+00  0.00000000E+00
  0.00000000E+00  0.00000000E+00  0.00000000E+00
  0.00000000E+00  0.00000000E+00  0.00000000E+00
  0.00000000E+00  0.00000000E+00  0.00000000E+00
  0.00000000E+00  0.00000000E+00  0.00000000E+00
  0.00000000E+00  0.00000000E+00  0.00000000E+00
  0.00000000E+00  0.00000000E+00  0.00000000E+00
  0.00000000E+00  0.00000000E+00  0.00000000E+00
  0.00000000E+00  0.00000000E+00  0.00000000E+00
  0.00000000E+00  0.00000000E+00  0.00000000E+00
  0.00000000E+00  0.00000000E+00  0.00000000E+00
  0.00000000E+00  0.00000000E+00  0.00000000E+00
  0.00000000E+00  0.00000000E+00  0.00000000E+00
  0.00000000E+00  0.00000000E+00  0.00000000E+00
  0.00000000E+00  0.00000000E+00  0.00000000E+00
  0.00000000E+00  0.00000000E+00  0.00000000E+00
  0.00000000E+00  0.00000000E+00  0.00000000E+00
  0.00000000E+00  0.00000000E+00  0.00000000E+00
  0.00000000E+00  0.00000000E+00  0.00000000E+00
  0.00000000E+00  0.00000000E+00  0.00000000E+00
  0.00000000E+00  0.00000000E+00  0.00000000E+00
  0.00000000E+00  0.00000000E+00  0.00000000E+00
  0.00000000E+00  0.00000000E+00  0.00000000E+00
  0.00000000E+00  0.00000000E+00  0.00000000E+00
  0.00000000E+00  0.00000000E+00  0.00000000E+00
  0.00000000E+00  0.00000000E+00  0.00000000E+00
  0.00000000E+00  0.00000000E+00  0.00000000E+00
  0.00000000E+00  0.00000000E+00  0.00000000E+00
  0.00000000E+00  0.00000000E+00  0.00000000E+00
  0.00000000E+00  0.00000000E+00  0.00000000E+00
  0.00000000E+00  0.00000000E+00  0.00000000E+00
  0.00000000E+00  0.00000000E+00  0.00000000E+00
  0.00000000E+00  0.00000000E+00  0.00000000E+00
  0.00000000E+00  0.00000000E+00  0.00000000E+00
  0.00000000E+00  0.00000000E+00  0.00000000E+00
  0.00000000E+00  0.00000000E+00  0.00000000E+00
  0.00000000E+00  0.00000000E+00  0.00000000E+00
  0.00000000E+00  0.00000000E+00  0.00000000E+00
  0.00000000E+00  0.00000000E+00  0.00000000E+00
  0.00000000E+00  0.00000000E+00  0.00000000E+00
  0.00000000E+00  0.00000000E+00  0.00000000E+00
  0.00000000E+00  0.00000000E+00  0.00000000E+00
  0.00000000E+00  0.00000000E+00  0.00000000E+00
  0.00000000E+00  0.00000000E+00  0.00000000E+00
  0.00000000E+00  0.00000000E+00  0.00000000E+00
  0.00000000E+00  0.00000000E+00  0.00000000E+00
  0.00000000E+00  0.00000000E+00  0.00000000E+00
  0.00000000E+00  0.00000000E+00  0.00000000E+00
  0.00000000E+00  0.00000000E+00  0.00000000E+00
  0.00000000E+00  0.00000000E+00  0.00000000E+00
