generated by phonopy                    
   1.02166284093234     
    55.6132321370791516   -0.0000000000000000    0.0000000000000000
    -0.0000000000000000    5.0790669663641594    0.0000000000000004
     0.0000000000000000   -2.5395334831820802    4.3986010203937296
   Co   Ru
    88    24
Direct
  0.0220965081672731  0.3333333333333286  0.1666666666666714
  0.0220965081672731  0.3333333333333286  0.6666666666666714
  0.0220965081672731  0.8333333333333286  0.1666666666666714
  0.0220965081672731  0.8333333333333286  0.6666666666666714
  0.0568395868576929  0.1666666666666714  0.3333333333333286
  0.0568395868576929  0.1666666666666714  0.8333333333333286
  0.0568395868576929  0.6666666666666714  0.3333333333333286
  0.0568395868576929  0.6666666666666714  0.8333333333333286
  0.0917584955855097  0.3333333333333286  0.1666666666666714
  0.0917584955855097  0.3333333333333286  0.6666666666666714
  0.0917584955855097  0.8333333333333286  0.1666666666666714
  0.0917584955855097  0.8333333333333286  0.6666666666666714
  0.1266560824057094  0.1666666666666714  0.3333333333333286
  0.1266560824057094  0.1666666666666714  0.8333333333333286
  0.1266560824057094  0.6666666666666714  0.3333333333333286
  0.1266560824057094  0.6666666666666714  0.8333333333333286
  0.1615524093662646  0.3333333333333286  0.1666666666666714
  0.1615524093662646  0.3333333333333286  0.6666666666666714
  0.1615524093662646  0.8333333333333286  0.1666666666666714
  0.1615524093662646  0.8333333333333286  0.6666666666666714
  0.1964491776593775  0.1666666666666714  0.3333333333333286
  0.1964491776593775  0.1666666666666714  0.8333333333333286
  0.1964491776593775  0.6666666666666714  0.3333333333333286
  0.1964491776593775  0.6666666666666714  0.8333333333333286
  0.2313419868721311  0.3333333333333286  0.1666666666666714
  0.2313419868721311  0.3333333333333286  0.6666666666666714
  0.2313419868721311  0.8333333333333286  0.1666666666666714
  0.2313419868721311  0.8333333333333286  0.6666666666666714
  0.2662261436830357  0.1666666666666714  0.3333333333333286
  0.2662261436830357  0.1666666666666714  0.8333333333333286
  0.2662261436830357  0.6666666666666714  0.3333333333333286
  0.2662261436830357  0.6666666666666714  0.8333333333333286
  0.3011070856937853  0.3333333333333286  0.1666666666666714
  0.3011070856937853  0.3333333333333286  0.6666666666666714
  0.3011070856937853  0.8333333333333286  0.1666666666666714
  0.3011070856937853  0.8333333333333286  0.6666666666666714
  0.3360073198293483  0.1666666666666714  0.3333333333333286
  0.3360073198293483  0.1666666666666714  0.8333333333333286
  0.3360073198293483  0.6666666666666714  0.3333333333333286
  0.3360073198293483  0.6666666666666714  0.8333333333333286
  0.3707348127878451  0.3333333333333286  0.1666666666666714
  0.3707348127878451  0.3333333333333286  0.6666666666666714
  0.3707348127878451  0.8333333333333286  0.1666666666666714
  0.3707348127878451  0.8333333333333286  0.6666666666666714
  0.5220965081672799  0.3333333333333286  0.1666666666666714
  0.5220965081672799  0.3333333333333286  0.6666666666666714
  0.5220965081672799  0.8333333333333286  0.1666666666666714
  0.5220965081672799  0.8333333333333286  0.6666666666666714
  0.5568395868576930  0.1666666666666714  0.3333333333333286
  0.5568395868576930  0.1666666666666714  0.8333333333333286
  0.5568395868576930  0.6666666666666714  0.3333333333333286
  0.5568395868576930  0.6666666666666714  0.8333333333333286
  0.5917584955855097  0.3333333333333286  0.1666666666666714
  0.5917584955855097  0.3333333333333286  0.6666666666666714
  0.5917584955855097  0.8333333333333286  0.1666666666666714
  0.5917584955855097  0.8333333333333286  0.6666666666666714
  0.6266560824057235  0.1666666666666714  0.3333333333333286
  0.6266560824057235  0.1666666666666714  0.8333333333333286
  0.6266560824057235  0.6666666666666714  0.3333333333333286
  0.6266560824057235  0.6666666666666714  0.8333333333333286
  0.6615524093662646  0.3333333333333286  0.1666666666666714
  0.6615524093662646  0.3333333333333286  0.6666666666666714
  0.6615524093662646  0.8333333333333286  0.1666666666666714
  0.6615524093662646  0.8333333333333286  0.6666666666666714
  0.6964491776593846  0.1666666666666714  0.3333333333333286
  0.6964491776593846  0.1666666666666714  0.8333333333333286
  0.6964491776593846  0.6666666666666714  0.3333333333333286
  0.6964491776593846  0.6666666666666714  0.8333333333333286
  0.7313419868721238  0.3333333333333286  0.1666666666666714
  0.7313419868721238  0.3333333333333286  0.6666666666666714
  0.7313419868721238  0.8333333333333286  0.1666666666666714
  0.7313419868721238  0.8333333333333286  0.6666666666666714
  0.7662261436830214  0.1666666666666714  0.3333333333333286
  0.7662261436830214  0.1666666666666714  0.8333333333333286
  0.7662261436830214  0.6666666666666714  0.3333333333333286
  0.7662261436830214  0.6666666666666714  0.8333333333333286
  0.8011070856937853  0.3333333333333286  0.1666666666666714
  0.8011070856937853  0.3333333333333286  0.6666666666666714
  0.8011070856937853  0.8333333333333286  0.1666666666666714
  0.8011070856937853  0.8333333333333286  0.6666666666666714
  0.8360073198293269  0.1666666666666714  0.3333333333333286
  0.8360073198293269  0.1666666666666714  0.8333333333333286
  0.8360073198293269  0.6666666666666714  0.3333333333333286
  0.8360073198293269  0.6666666666666714  0.8333333333333286
  0.8707348127878455  0.3333333333333286  0.1666666666666714
  0.8707348127878455  0.3333333333333286  0.6666666666666714
  0.8707348127878455  0.8333333333333286  0.1666666666666714
  0.8707348127878455  0.8333333333333286  0.6666666666666714
  0.4080263608179936  0.1666666666666714  0.3333333333333286
  0.4080263608179936  0.1666666666666714  0.8333333333333286
  0.4080263608179936  0.6666666666666714  0.3333333333333286
  0.4080263608179936  0.6666666666666714  0.8333333333333286
  0.4464094492903737  0.3333333333333286  0.1666666666666714
  0.4464094492903737  0.3333333333333286  0.6666666666666714
  0.4464094492903737  0.8333333333333286  0.1666666666666714
  0.4464094492903737  0.8333333333333286  0.6666666666666714
  0.4847945809836672  0.1666666666666714  0.3333333333333286
  0.4847945809836672  0.1666666666666714  0.8333333333333286
  0.4847945809836672  0.6666666666666714  0.3333333333333286
  0.4847945809836672  0.6666666666666714  0.8333333333333286
  0.9080263608179860  0.1666666666666714  0.3333333333333286
  0.9080263608179860  0.1666666666666714  0.8333333333333286
  0.9080263608179860  0.6666666666666714  0.3333333333333286
  0.9080263608179860  0.6666666666666714  0.8333333333333286
  0.9464094492903807  0.3333333333333286  0.1666666666666714
  0.9464094492903807  0.3333333333333286  0.6666666666666714
  0.9464094492903807  0.8333333333333286  0.1666666666666714
  0.9464094492903807  0.8333333333333286  0.6666666666666714
  0.9847945809836596  0.1666666666666714  0.3333333333333286
  0.9847945809836596  0.1666666666666714  0.8333333333333286
  0.9847945809836596  0.6666666666666714  0.3333333333333286
  0.9847945809836596  0.6666666666666714  0.8333333333333286
 
  0.00000000E+00  0.00000000E+00  0.00000000E+00
  0.00000000E+00  0.00000000E+00  0.00000000E+00
  0.00000000E+00  0.00000000E+00  0.00000000E+00
  0.00000000E+00  0.00000000E+00  0.00000000E+00
  0.00000000E+00  0.00000000E+00  0.00000000E+00
  0.00000000E+00  0.00000000E+00  0.00000000E+00
  0.00000000E+00  0.00000000E+00  0.00000000E+00
  0.00000000E+00  0.00000000E+00  0.00000000E+00
  0.00000000E+00  0.00000000E+00  0.00000000E+00
  0.00000000E+00  0.00000000E+00  0.00000000E+00
  0.00000000E+00  0.00000000E+00  0.00000000E+00
  0.00000000E+00  0.00000000E+00  0.00000000E+00
  0.00000000E+00  0.00000000E+00  0.00000000E+00
  0.00000000E+00  0.00000000E+00  0.00000000E+00
  0.00000000E+00  0.00000000E+00  0.00000000E+00
  0.00000000E+00  0.00000000E+00  0.00000000E+00
  0.00000000E+00  0.00000000E+00  0.00000000E+00
  0.00000000E+00  0.00000000E+00  0.00000000E+00
  0.00000000E+00  0.00000000E+00  0.00000000E+00
  0.00000000E+00  0.00000000E+00  0.00000000E+00
  0.00000000E+00  0.00000000E+00  0.00000000E+00
  0.00000000E+00  0.00000000E+00  0.00000000E+00
  0.00000000E+00  0.00000000E+00  0.00000000E+00
  0.00000000E+00  0.00000000E+00  0.00000000E+00
  0.00000000E+00  0.00000000E+00  0.00000000E+00
  0.00000000E+00  0.00000000E+00  0.00000000E+00
  0.00000000E+00  0.00000000E+00  0.00000000E+00
  0.00000000E+00  0.00000000E+00  0.00000000E+00
  0.00000000E+00  0.00000000E+00  0.00000000E+00
  0.00000000E+00  0.00000000E+00  0.00000000E+00
  0.00000000E+00  0.00000000E+00  0.00000000E+00
  0.00000000E+00  0.00000000E+00  0.00000000E+00
  0.00000000E+00  0.00000000E+00  0.00000000E+00
  0.00000000E+00  0.00000000E+00  0.00000000E+00
  0.00000000E+00  0.00000000E+00  0.00000000E+00
  0.00000000E+00  0.00000000E+00  0.00000000E+00
  0.00000000E+00  0.00000000E+00  0.00000000E+00
  0.00000000E+00  0.00000000E+00  0.00000000E+00
  0.00000000E+00  0.00000000E+00  0.00000000E+00
  0.00000000E+00  0.00000000E+00  0.00000000E+00
  0.00000000E+00  0.00000000E+00  0.00000000E+00
  0.00000000E+00  0.00000000E+00  0.00000000E+00
  0.00000000E+00  0.00000000E+00  0.00000000E+00
  0.00000000E+00  0.00000000E+00  0.00000000E+00
  0.00000000E+00  0.00000000E+00  0.00000000E+00
  0.00000000E+00  0.00000000E+00  0.00000000E+00
  0.00000000E+00  0.00000000E+00  0.00000000E+00
  0.00000000E+00  0.00000000E+00  0.00000000E+00
  0.00000000E+00  0.00000000E+00  0.00000000E+00
  0.00000000E+00  0.00000000E+00  0.00000000E+00
  0.00000000E+00  0.00000000E+00  0.00000000E+00
  0.00000000E+00  0.00000000E+00  0.00000000E+00
  0.00000000E+00  0.00000000E+00  0.00000000E+00
  0.00000000E+00  0.00000000E+00  0.00000000E+00
  0.00000000E+00  0.00000000E+00  0.00000000E+00
  0.00000000E+00  0.00000000E+00  0.00000000E+00
  0.00000000E+00  0.00000000E+00  0.00000000E+00
  0.00000000E+00  0.00000000E+00  0.00000000E+00
  0.00000000E+00  0.00000000E+00  0.00000000E+00
  0.00000000E+00  0.00000000E+00  0.00000000E+00
  0.00000000E+00  0.00000000E+00  0.00000000E+00
  0.00000000E+00  0.00000000E+00  0.00000000E+00
  0.00000000E+00  0.00000000E+00  0.00000000E+00
  0.00000000E+00  0.00000000E+00  0.00000000E+00
  0.00000000E+00  0.00000000E+00  0.00000000E+00
  0.00000000E+00  0.00000000E+00  0.00000000E+00
  0.00000000E+00  0.00000000E+00  0.00000000E+00
  0.00000000E+00  0.00000000E+00  0.00000000E+00
  0.00000000E+00  0.00000000E+00  0.00000000E+00
  0.00000000E+00  0.00000000E+00  0.00000000E+00
  0.00000000E+00  0.00000000E+00  0.00000000E+00
  0.00000000E+00  0.00000000E+00  0.00000000E+00
  0.00000000E+00  0.00000000E+00  0.00000000E+00
  0.00000000E+00  0.00000000E+00  0.00000000E+00
  0.00000000E+00  0.00000000E+00  0.00000000E+00
  0.00000000E+00  0.00000000E+00  0.00000000E+00
  0.00000000E+00  0.00000000E+00  0.00000000E+00
  0.00000000E+00  0.00000000E+00  0.00000000E+00
  0.00000000E+00  0.00000000E+00  0.00000000E+00
  0.00000000E+00  0.00000000E+00  0.00000000E+00
  0.00000000E+00  0.00000000E+00  0.00000000E+00
  0.00000000E+00  0.00000000E+00  0.00000000E+00
  0.00000000E+00  0.00000000E+00  0.00000000E+00
  0.00000000E+00  0.00000000E+00  0.00000000E+00
  0.00000000E+00  0.00000000E+00  0.00000000E+00
  0.00000000E+00  0.00000000E+00  0.00000000E+00
  0.00000000E+00  0.00000000E+00  0.00000000E+00
  0.00000000E+00  0.00000000E+00  0.00000000E+00
  0.00000000E+00  0.00000000E+00  0.00000000E+00
  0.00000000E+00  0.00000000E+00  0.00000000E+00
  0.00000000E+00  0.00000000E+00  0.00000000E+00
  0.00000000E+00  0.00000000E+00  0.00000000E+00
  0.00000000E+00  0.00000000E+00  0.00000000E+00
  0.00000000E+00  0.00000000E+00  0.00000000E+00
  0.00000000E+00  0.00000000E+00  0.00000000E+00
  0.00000000E+00  0.00000000E+00  0.00000000E+00
  0.00000000E+00  0.00000000E+00  0.00000000E+00
  0.00000000E+00  0.00000000E+00  0.00000000E+00
  0.00000000E+00  0.00000000E+00  0.00000000E+00
  0.00000000E+00  0.00000000E+00  0.00000000E+00
  0.00000000E+00  0.00000000E+00  0.00000000E+00
  0.00000000E+00  0.00000000E+00  0.00000000E+00
  0.00000000E+00  0.00000000E+00  0.00000000E+00
  0.00000000E+00  0.00000000E+00  0.00000000E+00
  0.00000000E+00  0.00000000E+00  0.00000000E+00
  0.00000000E+00  0.00000000E+00  0.00000000E+00
  0.00000000E+00  0.00000000E+00  0.00000000E+00
  0.00000000E+00  0.00000000E+00  0.00000000E+00
  0.00000000E+00  0.00000000E+00  0.00000000E+00
  0.00000000E+00  0.00000000E+00  0.00000000E+00
  0.00000000E+00  0.00000000E+00  0.00000000E+00
  0.00000000E+00  0.00000000E+00  0.00000000E+00
