generated by phonopy                    
   1.01827982662311     
    55.6129613690819937    0.0000000000000000    0.0000000000000000
     0.0000000000000000    5.0790793308119628    0.0000000000000005
     0.0000000000000000   -2.5395396654059827    4.3986117283196311
   Co   Ru
    88    24
Direct
  0.0221586206971764  0.3333333333333286  0.1666666666666714
  0.0221586206971764  0.3333333333333286  0.6666666666666714
  0.0221586206971764  0.8333333333333286  0.1666666666666714
  0.0221586206971764  0.8333333333333286  0.6666666666666714
  0.0568593368912005  0.1666666666666714  0.3333333333333286
  0.0568593368912005  0.1666666666666714  0.8333333333333286
  0.0568593368912005  0.6666666666666714  0.3333333333333286
  0.0568593368912005  0.6666666666666714  0.8333333333333286
  0.0917567981849174  0.3333333333333286  0.1666666666666714
  0.0917567981849174  0.3333333333333286  0.6666666666666714
  0.0917567981849174  0.8333333333333286  0.1666666666666714
  0.0917567981849174  0.8333333333333286  0.6666666666666714
  0.1266506741256350  0.1666666666666714  0.3333333333333286
  0.1266506741256350  0.1666666666666714  0.8333333333333286
  0.1266506741256350  0.6666666666666714  0.3333333333333286
  0.1266506741256350  0.6666666666666714  0.8333333333333286
  0.1615563537486722  0.3333333333333286  0.1666666666666714
  0.1615563537486722  0.3333333333333286  0.6666666666666714
  0.1615563537486722  0.8333333333333286  0.1666666666666714
  0.1615563537486722  0.8333333333333286  0.6666666666666714
  0.1964656307892909  0.1666666666666714  0.3333333333333286
  0.1964656307892909  0.1666666666666714  0.8333333333333286
  0.1964656307892909  0.6666666666666714  0.3333333333333286
  0.1964656307892909  0.6666666666666714  0.8333333333333286
  0.2313641260511332  0.3333333333333286  0.1666666666666714
  0.2313641260511332  0.3333333333333286  0.6666666666666714
  0.2313641260511332  0.8333333333333286  0.1666666666666714
  0.2313641260511332  0.8333333333333286  0.6666666666666714
  0.2662438745914528  0.1666666666666714  0.3333333333333286
  0.2662438745914528  0.1666666666666714  0.8333333333333286
  0.2662438745914528  0.6666666666666714  0.3333333333333286
  0.2662438745914528  0.6666666666666714  0.8333333333333286
  0.3011076599966458  0.3333333333333286  0.1666666666666714
  0.3011076599966458  0.3333333333333286  0.6666666666666714
  0.3011076599966458  0.8333333333333286  0.1666666666666714
  0.3011076599966458  0.8333333333333286  0.6666666666666714
  0.3359769186690471  0.1666666666666714  0.3333333333333286
  0.3359769186690471  0.1666666666666714  0.8333333333333286
  0.3359769186690471  0.6666666666666714  0.3333333333333286
  0.3359769186690471  0.6666666666666714  0.8333333333333286
  0.3706566198292904  0.3333333333333286  0.1666666666666714
  0.3706566198292904  0.3333333333333286  0.6666666666666714
  0.3706566198292904  0.8333333333333286  0.1666666666666714
  0.3706566198292904  0.8333333333333286  0.6666666666666714
  0.5221586206971836  0.3333333333333286  0.1666666666666714
  0.5221586206971836  0.3333333333333286  0.6666666666666714
  0.5221586206971836  0.8333333333333286  0.1666666666666714
  0.5221586206971836  0.8333333333333286  0.6666666666666714
  0.5568593368912005  0.1666666666666714  0.3333333333333286
  0.5568593368912005  0.1666666666666714  0.8333333333333286
  0.5568593368912005  0.6666666666666714  0.3333333333333286
  0.5568593368912005  0.6666666666666714  0.8333333333333286
  0.5917567981849174  0.3333333333333286  0.1666666666666714
  0.5917567981849174  0.3333333333333286  0.6666666666666714
  0.5917567981849174  0.8333333333333286  0.1666666666666714
  0.5917567981849174  0.8333333333333286  0.6666666666666714
  0.6266506741256492  0.1666666666666714  0.3333333333333286
  0.6266506741256492  0.1666666666666714  0.8333333333333286
  0.6266506741256492  0.6666666666666714  0.3333333333333286
  0.6266506741256492  0.6666666666666714  0.8333333333333286
  0.6615563537486722  0.3333333333333286  0.1666666666666714
  0.6615563537486722  0.3333333333333286  0.6666666666666714
  0.6615563537486722  0.8333333333333286  0.1666666666666714
  0.6615563537486722  0.8333333333333286  0.6666666666666714
  0.6964656307892980  0.1666666666666714  0.3333333333333286
  0.6964656307892980  0.1666666666666714  0.8333333333333286
  0.6964656307892980  0.6666666666666714  0.3333333333333286
  0.6964656307892980  0.6666666666666714  0.8333333333333286
  0.7313641260511261  0.3333333333333286  0.1666666666666714
  0.7313641260511261  0.3333333333333286  0.6666666666666714
  0.7313641260511261  0.8333333333333286  0.1666666666666714
  0.7313641260511261  0.8333333333333286  0.6666666666666714
  0.7662438745914386  0.1666666666666714  0.3333333333333286
  0.7662438745914386  0.1666666666666714  0.8333333333333286
  0.7662438745914386  0.6666666666666714  0.3333333333333286
  0.7662438745914386  0.6666666666666714  0.8333333333333286
  0.8011076599966458  0.3333333333333286  0.1666666666666714
  0.8011076599966458  0.3333333333333286  0.6666666666666714
  0.8011076599966458  0.8333333333333286  0.1666666666666714
  0.8011076599966458  0.8333333333333286  0.6666666666666714
  0.8359769186690258  0.1666666666666714  0.3333333333333286
  0.8359769186690258  0.1666666666666714  0.8333333333333286
  0.8359769186690258  0.6666666666666714  0.3333333333333286
  0.8359769186690258  0.6666666666666714  0.8333333333333286
  0.8706566198292904  0.3333333333333286  0.1666666666666714
  0.8706566198292904  0.3333333333333286  0.6666666666666714
  0.8706566198292904  0.8333333333333286  0.1666666666666714
  0.8706566198292904  0.8333333333333286  0.6666666666666714
  0.4079296457441757  0.1666666666666714  0.3333333333333286
  0.4079296457441757  0.1666666666666714  0.8333333333333286
  0.4079296457441757  0.6666666666666714  0.3333333333333286
  0.4079296457441757  0.6666666666666714  0.8333333333333286
  0.4464005256378414  0.3333333333333286  0.1666666666666714
  0.4464005256378414  0.3333333333333286  0.6666666666666714
  0.4464005256378414  0.8333333333333286  0.1666666666666714
  0.4464005256378414  0.8333333333333286  0.6666666666666714
  0.4848732150435282  0.1666666666666714  0.3333333333333286
  0.4848732150435282  0.1666666666666714  0.8333333333333286
  0.4848732150435282  0.6666666666666714  0.3333333333333286
  0.4848732150435282  0.6666666666666714  0.8333333333333286
  0.9079296457441686  0.1666666666666714  0.3333333333333286
  0.9079296457441686  0.1666666666666714  0.8333333333333286
  0.9079296457441686  0.6666666666666714  0.3333333333333286
  0.9079296457441686  0.6666666666666714  0.8333333333333286
  0.9464005256378485  0.3333333333333286  0.1666666666666714
  0.9464005256378485  0.3333333333333286  0.6666666666666714
  0.9464005256378485  0.8333333333333286  0.1666666666666714
  0.9464005256378485  0.8333333333333286  0.6666666666666714
  0.9848732150435211  0.1666666666666714  0.3333333333333286
  0.9848732150435211  0.1666666666666714  0.8333333333333286
  0.9848732150435211  0.6666666666666714  0.3333333333333286
  0.9848732150435211  0.6666666666666714  0.8333333333333286
 
  0.00000000E+00  0.00000000E+00  0.00000000E+00
  0.00000000E+00  0.00000000E+00  0.00000000E+00
  0.00000000E+00  0.00000000E+00  0.00000000E+00
  0.00000000E+00  0.00000000E+00  0.00000000E+00
  0.00000000E+00  0.00000000E+00  0.00000000E+00
  0.00000000E+00  0.00000000E+00  0.00000000E+00
  0.00000000E+00  0.00000000E+00  0.00000000E+00
  0.00000000E+00  0.00000000E+00  0.00000000E+00
  0.00000000E+00  0.00000000E+00  0.00000000E+00
  0.00000000E+00  0.00000000E+00  0.00000000E+00
  0.00000000E+00  0.00000000E+00  0.00000000E+00
  0.00000000E+00  0.00000000E+00  0.00000000E+00
  0.00000000E+00  0.00000000E+00  0.00000000E+00
  0.00000000E+00  0.00000000E+00  0.00000000E+00
  0.00000000E+00  0.00000000E+00  0.00000000E+00
  0.00000000E+00  0.00000000E+00  0.00000000E+00
  0.00000000E+00  0.00000000E+00  0.00000000E+00
  0.00000000E+00  0.00000000E+00  0.00000000E+00
  0.00000000E+00  0.00000000E+00  0.00000000E+00
  0.00000000E+00  0.00000000E+00  0.00000000E+00
  0.00000000E+00  0.00000000E+00  0.00000000E+00
  0.00000000E+00  0.00000000E+00  0.00000000E+00
  0.00000000E+00  0.00000000E+00  0.00000000E+00
  0.00000000E+00  0.00000000E+00  0.00000000E+00
  0.00000000E+00  0.00000000E+00  0.00000000E+00
  0.00000000E+00  0.00000000E+00  0.00000000E+00
  0.00000000E+00  0.00000000E+00  0.00000000E+00
  0.00000000E+00  0.00000000E+00  0.00000000E+00
  0.00000000E+00  0.00000000E+00  0.00000000E+00
  0.00000000E+00  0.00000000E+00  0.00000000E+00
  0.00000000E+00  0.00000000E+00  0.00000000E+00
  0.00000000E+00  0.00000000E+00  0.00000000E+00
  0.00000000E+00  0.00000000E+00  0.00000000E+00
  0.00000000E+00  0.00000000E+00  0.00000000E+00
  0.00000000E+00  0.00000000E+00  0.00000000E+00
  0.00000000E+00  0.00000000E+00  0.00000000E+00
  0.00000000E+00  0.00000000E+00  0.00000000E+00
  0.00000000E+00  0.00000000E+00  0.00000000E+00
  0.00000000E+00  0.00000000E+00  0.00000000E+00
  0.00000000E+00  0.00000000E+00  0.00000000E+00
  0.00000000E+00  0.00000000E+00  0.00000000E+00
  0.00000000E+00  0.00000000E+00  0.00000000E+00
  0.00000000E+00  0.00000000E+00  0.00000000E+00
  0.00000000E+00  0.00000000E+00  0.00000000E+00
  0.00000000E+00  0.00000000E+00  0.00000000E+00
  0.00000000E+00  0.00000000E+00  0.00000000E+00
  0.00000000E+00  0.00000000E+00  0.00000000E+00
  0.00000000E+00  0.00000000E+00  0.00000000E+00
  0.00000000E+00  0.00000000E+00  0.00000000E+00
  0.00000000E+00  0.00000000E+00  0.00000000E+00
  0.00000000E+00  0.00000000E+00  0.00000000E+00
  0.00000000E+00  0.00000000E+00  0.00000000E+00
  0.00000000E+00  0.00000000E+00  0.00000000E+00
  0.00000000E+00  0.00000000E+00  0.00000000E+00
  0.00000000E+00  0.00000000E+00  0.00000000E+00
  0.00000000E+00  0.00000000E+00  0.00000000E+00
  0.00000000E+00  0.00000000E+00  0.00000000E+00
  0.00000000E+00  0.00000000E+00  0.00000000E+00
  0.00000000E+00  0.00000000E+00  0.00000000E+00
  0.00000000E+00  0.00000000E+00  0.00000000E+00
  0.00000000E+00  0.00000000E+00  0.00000000E+00
  0.00000000E+00  0.00000000E+00  0.00000000E+00
  0.00000000E+00  0.00000000E+00  0.00000000E+00
  0.00000000E+00  0.00000000E+00  0.00000000E+00
  0.00000000E+00  0.00000000E+00  0.00000000E+00
  0.00000000E+00  0.00000000E+00  0.00000000E+00
  0.00000000E+00  0.00000000E+00  0.00000000E+00
  0.00000000E+00  0.00000000E+00  0.00000000E+00
  0.00000000E+00  0.00000000E+00  0.00000000E+00
  0.00000000E+00  0.00000000E+00  0.00000000E+00
  0.00000000E+00  0.00000000E+00  0.00000000E+00
  0.00000000E+00  0.00000000E+00  0.00000000E+00
  0.00000000E+00  0.00000000E+00  0.00000000E+00
  0.00000000E+00  0.00000000E+00  0.00000000E+00
  0.00000000E+00  0.00000000E+00  0.00000000E+00
  0.00000000E+00  0.00000000E+00  0.00000000E+00
  0.00000000E+00  0.00000000E+00  0.00000000E+00
  0.00000000E+00  0.00000000E+00  0.00000000E+00
  0.00000000E+00  0.00000000E+00  0.00000000E+00
  0.00000000E+00  0.00000000E+00  0.00000000E+00
  0.00000000E+00  0.00000000E+00  0.00000000E+00
  0.00000000E+00  0.00000000E+00  0.00000000E+00
  0.00000000E+00  0.00000000E+00  0.00000000E+00
  0.00000000E+00  0.00000000E+00  0.00000000E+00
  0.00000000E+00  0.00000000E+00  0.00000000E+00
  0.00000000E+00  0.00000000E+00  0.00000000E+00
  0.00000000E+00  0.00000000E+00  0.00000000E+00
  0.00000000E+00  0.00000000E+00  0.00000000E+00
  0.00000000E+00  0.00000000E+00  0.00000000E+00
  0.00000000E+00  0.00000000E+00  0.00000000E+00
  0.00000000E+00  0.00000000E+00  0.00000000E+00
  0.00000000E+00  0.00000000E+00  0.00000000E+00
  0.00000000E+00  0.00000000E+00  0.00000000E+00
  0.00000000E+00  0.00000000E+00  0.00000000E+00
  0.00000000E+00  0.00000000E+00  0.00000000E+00
  0.00000000E+00  0.00000000E+00  0.00000000E+00
  0.00000000E+00  0.00000000E+00  0.00000000E+00
  0.00000000E+00  0.00000000E+00  0.00000000E+00
  0.00000000E+00  0.00000000E+00  0.00000000E+00
  0.00000000E+00  0.00000000E+00  0.00000000E+00
  0.00000000E+00  0.00000000E+00  0.00000000E+00
  0.00000000E+00  0.00000000E+00  0.00000000E+00
  0.00000000E+00  0.00000000E+00  0.00000000E+00
  0.00000000E+00  0.00000000E+00  0.00000000E+00
  0.00000000E+00  0.00000000E+00  0.00000000E+00
  0.00000000E+00  0.00000000E+00  0.00000000E+00
  0.00000000E+00  0.00000000E+00  0.00000000E+00
  0.00000000E+00  0.00000000E+00  0.00000000E+00
  0.00000000E+00  0.00000000E+00  0.00000000E+00
  0.00000000E+00  0.00000000E+00  0.00000000E+00
  0.00000000E+00  0.00000000E+00  0.00000000E+00
  0.00000000E+00  0.00000000E+00  0.00000000E+00
