generated by phonopy                    
   1.01487418303515     
    55.6031105572231041   -0.0000000000000000    0.0000000000000000
    -0.0000000000000000    5.0795292232604083    0.0000000000000003
     0.0000000000000000   -2.5397646116302055    4.3990013466089541
   Co   Ru
    88    24
Direct
  0.0222496744929697  0.3333333333333286  0.1666666666666714
  0.0222496744929697  0.3333333333333286  0.6666666666666714
  0.0222496744929697  0.8333333333333286  0.1666666666666714
  0.0222496744929697  0.8333333333333286  0.6666666666666714
  0.0569273503336233  0.1666666666666714  0.3333333333333286
  0.0569273503336233  0.1666666666666714  0.8333333333333286
  0.0569273503336233  0.6666666666666714  0.3333333333333286
  0.0569273503336233  0.6666666666666714  0.8333333333333286
  0.0917976796051549  0.3333333333333286  0.1666666666666714
  0.0917976796051549  0.3333333333333286  0.6666666666666714
  0.0917976796051549  0.8333333333333286  0.1666666666666714
  0.0917976796051549  0.8333333333333286  0.6666666666666714
  0.1266716734686963  0.1666666666666714  0.3333333333333286
  0.1266716734686963  0.1666666666666714  0.8333333333333286
  0.1266716734686963  0.6666666666666714  0.3333333333333286
  0.1266716734686963  0.6666666666666714  0.8333333333333286
  0.1615549286050045  0.3333333333333286  0.1666666666666714
  0.1615549286050045  0.3333333333333286  0.6666666666666714
  0.1615549286050045  0.8333333333333286  0.1666666666666714
  0.1615549286050045  0.8333333333333286  0.6666666666666714
  0.1964448194610706  0.1666666666666714  0.3333333333333286
  0.1964448194610706  0.1666666666666714  0.8333333333333286
  0.1964448194610706  0.6666666666666714  0.3333333333333286
  0.1964448194610706  0.6666666666666714  0.8333333333333286
  0.2313311624416973  0.3333333333333286  0.1666666666666714
  0.2313311624416973  0.3333333333333286  0.6666666666666714
  0.2313311624416973  0.8333333333333286  0.1666666666666714
  0.2313311624416973  0.8333333333333286  0.6666666666666714
  0.2662050184853716  0.1666666666666714  0.3333333333333286
  0.2662050184853716  0.1666666666666714  0.8333333333333286
  0.2662050184853716  0.6666666666666714  0.3333333333333286
  0.2662050184853716  0.6666666666666714  0.8333333333333286
  0.3010662269164232  0.3333333333333286  0.1666666666666714
  0.3010662269164232  0.3333333333333286  0.6666666666666714
  0.3010662269164232  0.8333333333333286  0.1666666666666714
  0.3010662269164232  0.8333333333333286  0.6666666666666714
  0.3359220183581925  0.1666666666666714  0.3333333333333286
  0.3359220183581925  0.1666666666666714  0.8333333333333286
  0.3359220183581925  0.6666666666666714  0.3333333333333286
  0.3359220183581925  0.6666666666666714  0.8333333333333286
  0.3705875136925177  0.3333333333333286  0.1666666666666714
  0.3705875136925177  0.3333333333333286  0.6666666666666714
  0.3705875136925177  0.8333333333333286  0.1666666666666714
  0.3705875136925177  0.8333333333333286  0.6666666666666714
  0.5222496744929769  0.3333333333333286  0.1666666666666714
  0.5222496744929769  0.3333333333333286  0.6666666666666714
  0.5222496744929769  0.8333333333333286  0.1666666666666714
  0.5222496744929769  0.8333333333333286  0.6666666666666714
  0.5569273503336234  0.1666666666666714  0.3333333333333286
  0.5569273503336234  0.1666666666666714  0.8333333333333286
  0.5569273503336234  0.6666666666666714  0.3333333333333286
  0.5569273503336234  0.6666666666666714  0.8333333333333286
  0.5917976796051547  0.3333333333333286  0.1666666666666714
  0.5917976796051547  0.3333333333333286  0.6666666666666714
  0.5917976796051547  0.8333333333333286  0.1666666666666714
  0.5917976796051547  0.8333333333333286  0.6666666666666714
  0.6266716734687104  0.1666666666666714  0.3333333333333286
  0.6266716734687104  0.1666666666666714  0.8333333333333286
  0.6266716734687104  0.6666666666666714  0.3333333333333286
  0.6266716734687104  0.6666666666666714  0.8333333333333286
  0.6615549286050044  0.3333333333333286  0.1666666666666714
  0.6615549286050044  0.3333333333333286  0.6666666666666714
  0.6615549286050044  0.8333333333333286  0.1666666666666714
  0.6615549286050044  0.8333333333333286  0.6666666666666714
  0.6964448194610778  0.1666666666666714  0.3333333333333286
  0.6964448194610778  0.1666666666666714  0.8333333333333286
  0.6964448194610778  0.6666666666666714  0.3333333333333286
  0.6964448194610778  0.6666666666666714  0.8333333333333286
  0.7313311624416904  0.3333333333333286  0.1666666666666714
  0.7313311624416904  0.3333333333333286  0.6666666666666714
  0.7313311624416904  0.8333333333333286  0.1666666666666714
  0.7313311624416904  0.8333333333333286  0.6666666666666714
  0.7662050184853575  0.1666666666666714  0.3333333333333286
  0.7662050184853575  0.1666666666666714  0.8333333333333286
  0.7662050184853575  0.6666666666666714  0.3333333333333286
  0.7662050184853575  0.6666666666666714  0.8333333333333286
  0.8010662269164229  0.3333333333333286  0.1666666666666714
  0.8010662269164229  0.3333333333333286  0.6666666666666714
  0.8010662269164229  0.8333333333333286  0.1666666666666714
  0.8010662269164229  0.8333333333333286  0.6666666666666714
  0.8359220183581707  0.1666666666666714  0.3333333333333286
  0.8359220183581707  0.1666666666666714  0.8333333333333286
  0.8359220183581707  0.6666666666666714  0.3333333333333286
  0.8359220183581707  0.6666666666666714  0.8333333333333286
  0.8705875136925176  0.3333333333333286  0.1666666666666714
  0.8705875136925176  0.3333333333333286  0.6666666666666714
  0.8705875136925176  0.8333333333333286  0.1666666666666714
  0.8705875136925176  0.8333333333333286  0.6666666666666714
  0.4078530929021821  0.1666666666666714  0.3333333333333286
  0.4078530929021821  0.1666666666666714  0.8333333333333286
  0.4078530929021821  0.6666666666666714  0.3333333333333286
  0.4078530929021821  0.6666666666666714  0.8333333333333286
  0.4464134104727637  0.3333333333333286  0.1666666666666714
  0.4464134104727637  0.3333333333333286  0.6666666666666714
  0.4464134104727637  0.8333333333333286  0.1666666666666714
  0.4464134104727637  0.8333333333333286  0.6666666666666714
  0.4849754307643396  0.1666666666666714  0.3333333333333286
  0.4849754307643396  0.1666666666666714  0.8333333333333286
  0.4849754307643396  0.6666666666666714  0.3333333333333286
  0.4849754307643396  0.6666666666666714  0.8333333333333286
  0.9078530929021751  0.1666666666666714  0.3333333333333286
  0.9078530929021751  0.1666666666666714  0.8333333333333286
  0.9078530929021751  0.6666666666666714  0.3333333333333286
  0.9078530929021751  0.6666666666666714  0.8333333333333286
  0.9464134104727705  0.3333333333333286  0.1666666666666714
  0.9464134104727705  0.3333333333333286  0.6666666666666714
  0.9464134104727705  0.8333333333333286  0.1666666666666714
  0.9464134104727705  0.8333333333333286  0.6666666666666714
  0.9849754307643328  0.1666666666666714  0.3333333333333286
  0.9849754307643328  0.1666666666666714  0.8333333333333286
  0.9849754307643328  0.6666666666666714  0.3333333333333286
  0.9849754307643328  0.6666666666666714  0.8333333333333286
 
  0.00000000E+00  0.00000000E+00  0.00000000E+00
  0.00000000E+00  0.00000000E+00  0.00000000E+00
  0.00000000E+00  0.00000000E+00  0.00000000E+00
  0.00000000E+00  0.00000000E+00  0.00000000E+00
  0.00000000E+00  0.00000000E+00  0.00000000E+00
  0.00000000E+00  0.00000000E+00  0.00000000E+00
  0.00000000E+00  0.00000000E+00  0.00000000E+00
  0.00000000E+00  0.00000000E+00  0.00000000E+00
  0.00000000E+00  0.00000000E+00  0.00000000E+00
  0.00000000E+00  0.00000000E+00  0.00000000E+00
  0.00000000E+00  0.00000000E+00  0.00000000E+00
  0.00000000E+00  0.00000000E+00  0.00000000E+00
  0.00000000E+00  0.00000000E+00  0.00000000E+00
  0.00000000E+00  0.00000000E+00  0.00000000E+00
  0.00000000E+00  0.00000000E+00  0.00000000E+00
  0.00000000E+00  0.00000000E+00  0.00000000E+00
  0.00000000E+00  0.00000000E+00  0.00000000E+00
  0.00000000E+00  0.00000000E+00  0.00000000E+00
  0.00000000E+00  0.00000000E+00  0.00000000E+00
  0.00000000E+00  0.00000000E+00  0.00000000E+00
  0.00000000E+00  0.00000000E+00  0.00000000E+00
  0.00000000E+00  0.00000000E+00  0.00000000E+00
  0.00000000E+00  0.00000000E+00  0.00000000E+00
  0.00000000E+00  0.00000000E+00  0.00000000E+00
  0.00000000E+00  0.00000000E+00  0.00000000E+00
  0.00000000E+00  0.00000000E+00  0.00000000E+00
  0.00000000E+00  0.00000000E+00  0.00000000E+00
  0.00000000E+00  0.00000000E+00  0.00000000E+00
  0.00000000E+00  0.00000000E+00  0.00000000E+00
  0.00000000E+00  0.00000000E+00  0.00000000E+00
  0.00000000E+00  0.00000000E+00  0.00000000E+00
  0.00000000E+00  0.00000000E+00  0.00000000E+00
  0.00000000E+00  0.00000000E+00  0.00000000E+00
  0.00000000E+00  0.00000000E+00  0.00000000E+00
  0.00000000E+00  0.00000000E+00  0.00000000E+00
  0.00000000E+00  0.00000000E+00  0.00000000E+00
  0.00000000E+00  0.00000000E+00  0.00000000E+00
  0.00000000E+00  0.00000000E+00  0.00000000E+00
  0.00000000E+00  0.00000000E+00  0.00000000E+00
  0.00000000E+00  0.00000000E+00  0.00000000E+00
  0.00000000E+00  0.00000000E+00  0.00000000E+00
  0.00000000E+00  0.00000000E+00  0.00000000E+00
  0.00000000E+00  0.00000000E+00  0.00000000E+00
  0.00000000E+00  0.00000000E+00  0.00000000E+00
  0.00000000E+00  0.00000000E+00  0.00000000E+00
  0.00000000E+00  0.00000000E+00  0.00000000E+00
  0.00000000E+00  0.00000000E+00  0.00000000E+00
  0.00000000E+00  0.00000000E+00  0.00000000E+00
  0.00000000E+00  0.00000000E+00  0.00000000E+00
  0.00000000E+00  0.00000000E+00  0.00000000E+00
  0.00000000E+00  0.00000000E+00  0.00000000E+00
  0.00000000E+00  0.00000000E+00  0.00000000E+00
  0.00000000E+00  0.00000000E+00  0.00000000E+00
  0.00000000E+00  0.00000000E+00  0.00000000E+00
  0.00000000E+00  0.00000000E+00  0.00000000E+00
  0.00000000E+00  0.00000000E+00  0.00000000E+00
  0.00000000E+00  0.00000000E+00  0.00000000E+00
  0.00000000E+00  0.00000000E+00  0.00000000E+00
  0.00000000E+00  0.00000000E+00  0.00000000E+00
  0.00000000E+00  0.00000000E+00  0.00000000E+00
  0.00000000E+00  0.00000000E+00  0.00000000E+00
  0.00000000E+00  0.00000000E+00  0.00000000E+00
  0.00000000E+00  0.00000000E+00  0.00000000E+00
  0.00000000E+00  0.00000000E+00  0.00000000E+00
  0.00000000E+00  0.00000000E+00  0.00000000E+00
  0.00000000E+00  0.00000000E+00  0.00000000E+00
  0.00000000E+00  0.00000000E+00  0.00000000E+00
  0.00000000E+00  0.00000000E+00  0.00000000E+00
  0.00000000E+00  0.00000000E+00  0.00000000E+00
  0.00000000E+00  0.00000000E+00  0.00000000E+00
  0.00000000E+00  0.00000000E+00  0.00000000E+00
  0.00000000E+00  0.00000000E+00  0.00000000E+00
  0.00000000E+00  0.00000000E+00  0.00000000E+00
  0.00000000E+00  0.00000000E+00  0.00000000E+00
  0.00000000E+00  0.00000000E+00  0.00000000E+00
  0.00000000E+00  0.00000000E+00  0.00000000E+00
  0.00000000E+00  0.00000000E+00  0.00000000E+00
  0.00000000E+00  0.00000000E+00  0.00000000E+00
  0.00000000E+00  0.00000000E+00  0.00000000E+00
  0.00000000E+00  0.00000000E+00  0.00000000E+00
  0.00000000E+00  0.00000000E+00  0.00000000E+00
  0.00000000E+00  0.00000000E+00  0.00000000E+00
  0.00000000E+00  0.00000000E+00  0.00000000E+00
  0.00000000E+00  0.00000000E+00  0.00000000E+00
  0.00000000E+00  0.00000000E+00  0.00000000E+00
  0.00000000E+00  0.00000000E+00  0.00000000E+00
  0.00000000E+00  0.00000000E+00  0.00000000E+00
  0.00000000E+00  0.00000000E+00  0.00000000E+00
  0.00000000E+00  0.00000000E+00  0.00000000E+00
  0.00000000E+00  0.00000000E+00  0.00000000E+00
  0.00000000E+00  0.00000000E+00  0.00000000E+00
  0.00000000E+00  0.00000000E+00  0.00000000E+00
  0.00000000E+00  0.00000000E+00  0.00000000E+00
  0.00000000E+00  0.00000000E+00  0.00000000E+00
  0.00000000E+00  0.00000000E+00  0.00000000E+00
  0.00000000E+00  0.00000000E+00  0.00000000E+00
  0.00000000E+00  0.00000000E+00  0.00000000E+00
  0.00000000E+00  0.00000000E+00  0.00000000E+00
  0.00000000E+00  0.00000000E+00  0.00000000E+00
  0.00000000E+00  0.00000000E+00  0.00000000E+00
  0.00000000E+00  0.00000000E+00  0.00000000E+00
  0.00000000E+00  0.00000000E+00  0.00000000E+00
  0.00000000E+00  0.00000000E+00  0.00000000E+00
  0.00000000E+00  0.00000000E+00  0.00000000E+00
  0.00000000E+00  0.00000000E+00  0.00000000E+00
  0.00000000E+00  0.00000000E+00  0.00000000E+00
  0.00000000E+00  0.00000000E+00  0.00000000E+00
  0.00000000E+00  0.00000000E+00  0.00000000E+00
  0.00000000E+00  0.00000000E+00  0.00000000E+00
  0.00000000E+00  0.00000000E+00  0.00000000E+00
  0.00000000E+00  0.00000000E+00  0.00000000E+00
  0.00000000E+00  0.00000000E+00  0.00000000E+00
