generated by phonopy                    
   0.9966554934125963     
    28.2334018651614613    0.0000000000000000    0.0000000000000000
     0.0000000000000000    5.1100086814489938   -0.0000000000000000
     0.0000000000000000   -2.5550043407244969    4.4253973316938477
   Co   Ru
    48     8
Direct
  0.0385524545537755  0.3333333333333286  0.1666666666666714
  0.0385524545537755  0.3333333333333286  0.6666666666666714
  0.0385524545537755  0.8333333333333286  0.1666666666666714
  0.0385524545537755  0.8333333333333286  0.6666666666666714
  0.1086516358534302  0.1666666666666714  0.3333333333333286
  0.1086516358534302  0.1666666666666714  0.8333333333333286
  0.1086516358534302  0.6666666666666714  0.3333333333333286
  0.1086516358534302  0.6666666666666714  0.8333333333333286
  0.1791552239703971  0.3333333333333286  0.1666666666666714
  0.1791552239703971  0.3333333333333286  0.6666666666666714
  0.1791552239703971  0.8333333333333286  0.1666666666666714
  0.1791552239703971  0.8333333333333286  0.6666666666666714
  0.2494162046010335  0.1666666666666714  0.3333333333333286
  0.2494162046010335  0.1666666666666714  0.8333333333333286
  0.2494162046010335  0.6666666666666714  0.3333333333333286
  0.2494162046010335  0.6666666666666714  0.8333333333333286
  0.3199197927179934  0.3333333333333286  0.1666666666666714
  0.3199197927179934  0.3333333333333286  0.6666666666666714
  0.3199197927179934  0.8333333333333286  0.1666666666666714
  0.3199197927179934  0.8333333333333286  0.6666666666666714
  0.3900189740176551  0.1666666666666714  0.3333333333333286
  0.3900189740176551  0.1666666666666714  0.8333333333333286
  0.3900189740176551  0.6666666666666714  0.3333333333333286
  0.3900189740176551  0.6666666666666714  0.8333333333333286
  0.5385524545537757  0.1666666666666714  0.3333333333333286
  0.5385524545537757  0.1666666666666714  0.8333333333333286
  0.5385524545537757  0.6666666666666714  0.3333333333333286
  0.5385524545537757  0.6666666666666714  0.8333333333333286
  0.6086516358534301  0.3333333333333286  0.1666666666666714
  0.6086516358534301  0.3333333333333286  0.6666666666666714
  0.6086516358534301  0.8333333333333286  0.1666666666666714
  0.6086516358534301  0.8333333333333286  0.6666666666666714
  0.6791552239703970  0.1666666666666714  0.3333333333333286
  0.6791552239703970  0.1666666666666714  0.8333333333333286
  0.6791552239703970  0.6666666666666714  0.3333333333333286
  0.6791552239703970  0.6666666666666714  0.8333333333333286
  0.7494162046010336  0.3333333333333286  0.1666666666666714
  0.7494162046010336  0.3333333333333286  0.6666666666666714
  0.7494162046010336  0.8333333333333286  0.1666666666666714
  0.7494162046010336  0.8333333333333286  0.6666666666666714
  0.8199197927179934  0.1666666666666714  0.3333333333333286
  0.8199197927179934  0.1666666666666714  0.8333333333333286
  0.8199197927179934  0.6666666666666714  0.3333333333333286
  0.8199197927179934  0.6666666666666714  0.8333333333333286
  0.8900189740176550  0.3333333333333286  0.1666666666666714
  0.8900189740176550  0.3333333333333286  0.6666666666666714
  0.8900189740176550  0.8333333333333286  0.1666666666666714
  0.8900189740176550  0.8333333333333286  0.6666666666666714
  0.4642857142857153  0.3333333333333286  0.1666666666666714
  0.4642857142857153  0.3333333333333286  0.6666666666666714
  0.4642857142857153  0.8333333333333286  0.1666666666666714
  0.4642857142857153  0.8333333333333286  0.6666666666666714
  0.9642857142857153  0.1666666666666714  0.3333333333333286
  0.9642857142857153  0.1666666666666714  0.8333333333333286
  0.9642857142857153  0.6666666666666714  0.3333333333333286
  0.9642857142857153  0.6666666666666714  0.8333333333333286
 
  0.00000000E+00  0.00000000E+00  0.00000000E+00
  0.00000000E+00  0.00000000E+00  0.00000000E+00
  0.00000000E+00  0.00000000E+00  0.00000000E+00
  0.00000000E+00  0.00000000E+00  0.00000000E+00
  0.00000000E+00  0.00000000E+00  0.00000000E+00
  0.00000000E+00  0.00000000E+00  0.00000000E+00
  0.00000000E+00  0.00000000E+00  0.00000000E+00
  0.00000000E+00  0.00000000E+00  0.00000000E+00
  0.00000000E+00  0.00000000E+00  0.00000000E+00
  0.00000000E+00  0.00000000E+00  0.00000000E+00
  0.00000000E+00  0.00000000E+00  0.00000000E+00
  0.00000000E+00  0.00000000E+00  0.00000000E+00
  0.00000000E+00  0.00000000E+00  0.00000000E+00
  0.00000000E+00  0.00000000E+00  0.00000000E+00
  0.00000000E+00  0.00000000E+00  0.00000000E+00
  0.00000000E+00  0.00000000E+00  0.00000000E+00
  0.00000000E+00  0.00000000E+00  0.00000000E+00
  0.00000000E+00  0.00000000E+00  0.00000000E+00
  0.00000000E+00  0.00000000E+00  0.00000000E+00
  0.00000000E+00  0.00000000E+00  0.00000000E+00
  0.00000000E+00  0.00000000E+00  0.00000000E+00
  0.00000000E+00  0.00000000E+00  0.00000000E+00
  0.00000000E+00  0.00000000E+00  0.00000000E+00
  0.00000000E+00  0.00000000E+00  0.00000000E+00
  0.00000000E+00  0.00000000E+00  0.00000000E+00
  0.00000000E+00  0.00000000E+00  0.00000000E+00
  0.00000000E+00  0.00000000E+00  0.00000000E+00
  0.00000000E+00  0.00000000E+00  0.00000000E+00
  0.00000000E+00  0.00000000E+00  0.00000000E+00
  0.00000000E+00  0.00000000E+00  0.00000000E+00
  0.00000000E+00  0.00000000E+00  0.00000000E+00
  0.00000000E+00  0.00000000E+00  0.00000000E+00
  0.00000000E+00  0.00000000E+00  0.00000000E+00
  0.00000000E+00  0.00000000E+00  0.00000000E+00
  0.00000000E+00  0.00000000E+00  0.00000000E+00
  0.00000000E+00  0.00000000E+00  0.00000000E+00
  0.00000000E+00  0.00000000E+00  0.00000000E+00
  0.00000000E+00  0.00000000E+00  0.00000000E+00
  0.00000000E+00  0.00000000E+00  0.00000000E+00
  0.00000000E+00  0.00000000E+00  0.00000000E+00
  0.00000000E+00  0.00000000E+00  0.00000000E+00
  0.00000000E+00  0.00000000E+00  0.00000000E+00
  0.00000000E+00  0.00000000E+00  0.00000000E+00
  0.00000000E+00  0.00000000E+00  0.00000000E+00
  0.00000000E+00  0.00000000E+00  0.00000000E+00
  0.00000000E+00  0.00000000E+00  0.00000000E+00
  0.00000000E+00  0.00000000E+00  0.00000000E+00
  0.00000000E+00  0.00000000E+00  0.00000000E+00
  0.00000000E+00  0.00000000E+00  0.00000000E+00
  0.00000000E+00  0.00000000E+00  0.00000000E+00
  0.00000000E+00  0.00000000E+00  0.00000000E+00
  0.00000000E+00  0.00000000E+00  0.00000000E+00
  0.00000000E+00  0.00000000E+00  0.00000000E+00
  0.00000000E+00  0.00000000E+00  0.00000000E+00
  0.00000000E+00  0.00000000E+00  0.00000000E+00
  0.00000000E+00  0.00000000E+00  0.00000000E+00
