generated by phonopy                    
   0.9999999999999998     
    28.2335356903857999   -0.0000000000000000   -0.0000000000000000
     0.0000000000000000    5.1099965708710613    0.0000000000000000
     0.0000000000000000   -2.5549982854355306    4.4253868436257049
   Co   Ru
    48     8
Direct
  0.0385037591141187  0.3333333333333286  0.1666666666666714
  0.0385037591141187  0.3333333333333286  0.6666666666666714
  0.0385037591141187  0.8333333333333286  0.1666666666666714
  0.0385037591141187  0.8333333333333286  0.6666666666666714
  0.1086393860830584  0.1666666666666714  0.3333333333333286
  0.1086393860830584  0.1666666666666714  0.8333333333333286
  0.1086393860830584  0.6666666666666714  0.3333333333333286
  0.1086393860830584  0.6666666666666714  0.8333333333333286
  0.1791552085934620  0.3333333333333286  0.1666666666666714
  0.1791552085934620  0.3333333333333286  0.6666666666666714
  0.1791552085934620  0.8333333333333286  0.1666666666666714
  0.1791552085934620  0.8333333333333286  0.6666666666666714
  0.2494162199779686  0.1666666666666714  0.3333333333333286
  0.2494162199779686  0.1666666666666714  0.8333333333333286
  0.2494162199779686  0.6666666666666714  0.3333333333333286
  0.2494162199779686  0.6666666666666714  0.8333333333333286
  0.3199320424883651  0.3333333333333286  0.1666666666666714
  0.3199320424883651  0.3333333333333286  0.6666666666666714
  0.3199320424883651  0.8333333333333286  0.1666666666666714
  0.3199320424883651  0.8333333333333286  0.6666666666666714
  0.3900676694573119  0.1666666666666714  0.3333333333333286
  0.3900676694573119  0.1666666666666714  0.8333333333333286
  0.3900676694573119  0.6666666666666714  0.3333333333333286
  0.3900676694573119  0.6666666666666714  0.8333333333333286
  0.5385037591141187  0.1666666666666714  0.3333333333333286
  0.5385037591141187  0.1666666666666714  0.8333333333333286
  0.5385037591141187  0.6666666666666714  0.3333333333333286
  0.5385037591141187  0.6666666666666714  0.8333333333333286
  0.6086393860830585  0.3333333333333286  0.1666666666666714
  0.6086393860830585  0.3333333333333286  0.6666666666666714
  0.6086393860830585  0.8333333333333286  0.1666666666666714
  0.6086393860830585  0.8333333333333286  0.6666666666666714
  0.6791552085934620  0.1666666666666714  0.3333333333333286
  0.6791552085934620  0.1666666666666714  0.8333333333333286
  0.6791552085934620  0.6666666666666714  0.3333333333333286
  0.6791552085934620  0.6666666666666714  0.8333333333333286
  0.7494162199779686  0.3333333333333286  0.1666666666666714
  0.7494162199779686  0.3333333333333286  0.6666666666666714
  0.7494162199779686  0.8333333333333286  0.1666666666666714
  0.7494162199779686  0.8333333333333286  0.6666666666666714
  0.8199320424883650  0.1666666666666714  0.3333333333333286
  0.8199320424883650  0.1666666666666714  0.8333333333333286
  0.8199320424883650  0.6666666666666714  0.3333333333333286
  0.8199320424883650  0.6666666666666714  0.8333333333333286
  0.8900676694573119  0.3333333333333286  0.1666666666666714
  0.8900676694573119  0.3333333333333286  0.6666666666666714
  0.8900676694573119  0.8333333333333286  0.1666666666666714
  0.8900676694573119  0.8333333333333286  0.6666666666666714
  0.4642857142857153  0.3333333333333286  0.1666666666666714
  0.4642857142857153  0.3333333333333286  0.6666666666666714
  0.4642857142857153  0.8333333333333286  0.1666666666666714
  0.4642857142857153  0.8333333333333286  0.6666666666666714
  0.9642857142857153  0.1666666666666714  0.3333333333333286
  0.9642857142857153  0.1666666666666714  0.8333333333333286
  0.9642857142857153  0.6666666666666714  0.3333333333333286
  0.9642857142857153  0.6666666666666714  0.8333333333333286
 
  0.00000000E+00  0.00000000E+00  0.00000000E+00
  0.00000000E+00  0.00000000E+00  0.00000000E+00
  0.00000000E+00  0.00000000E+00  0.00000000E+00
  0.00000000E+00  0.00000000E+00  0.00000000E+00
  0.00000000E+00  0.00000000E+00  0.00000000E+00
  0.00000000E+00  0.00000000E+00  0.00000000E+00
  0.00000000E+00  0.00000000E+00  0.00000000E+00
  0.00000000E+00  0.00000000E+00  0.00000000E+00
  0.00000000E+00  0.00000000E+00  0.00000000E+00
  0.00000000E+00  0.00000000E+00  0.00000000E+00
  0.00000000E+00  0.00000000E+00  0.00000000E+00
  0.00000000E+00  0.00000000E+00  0.00000000E+00
  0.00000000E+00  0.00000000E+00  0.00000000E+00
  0.00000000E+00  0.00000000E+00  0.00000000E+00
  0.00000000E+00  0.00000000E+00  0.00000000E+00
  0.00000000E+00  0.00000000E+00  0.00000000E+00
  0.00000000E+00  0.00000000E+00  0.00000000E+00
  0.00000000E+00  0.00000000E+00  0.00000000E+00
  0.00000000E+00  0.00000000E+00  0.00000000E+00
  0.00000000E+00  0.00000000E+00  0.00000000E+00
  0.00000000E+00  0.00000000E+00  0.00000000E+00
  0.00000000E+00  0.00000000E+00  0.00000000E+00
  0.00000000E+00  0.00000000E+00  0.00000000E+00
  0.00000000E+00  0.00000000E+00  0.00000000E+00
  0.00000000E+00  0.00000000E+00  0.00000000E+00
  0.00000000E+00  0.00000000E+00  0.00000000E+00
  0.00000000E+00  0.00000000E+00  0.00000000E+00
  0.00000000E+00  0.00000000E+00  0.00000000E+00
  0.00000000E+00  0.00000000E+00  0.00000000E+00
  0.00000000E+00  0.00000000E+00  0.00000000E+00
  0.00000000E+00  0.00000000E+00  0.00000000E+00
  0.00000000E+00  0.00000000E+00  0.00000000E+00
  0.00000000E+00  0.00000000E+00  0.00000000E+00
  0.00000000E+00  0.00000000E+00  0.00000000E+00
  0.00000000E+00  0.00000000E+00  0.00000000E+00
  0.00000000E+00  0.00000000E+00  0.00000000E+00
  0.00000000E+00  0.00000000E+00  0.00000000E+00
  0.00000000E+00  0.00000000E+00  0.00000000E+00
  0.00000000E+00  0.00000000E+00  0.00000000E+00
  0.00000000E+00  0.00000000E+00  0.00000000E+00
  0.00000000E+00  0.00000000E+00  0.00000000E+00
  0.00000000E+00  0.00000000E+00  0.00000000E+00
  0.00000000E+00  0.00000000E+00  0.00000000E+00
  0.00000000E+00  0.00000000E+00  0.00000000E+00
  0.00000000E+00  0.00000000E+00  0.00000000E+00
  0.00000000E+00  0.00000000E+00  0.00000000E+00
  0.00000000E+00  0.00000000E+00  0.00000000E+00
  0.00000000E+00  0.00000000E+00  0.00000000E+00
  0.00000000E+00  0.00000000E+00  0.00000000E+00
  0.00000000E+00  0.00000000E+00  0.00000000E+00
  0.00000000E+00  0.00000000E+00  0.00000000E+00
  0.00000000E+00  0.00000000E+00  0.00000000E+00
  0.00000000E+00  0.00000000E+00  0.00000000E+00
  0.00000000E+00  0.00000000E+00  0.00000000E+00
  0.00000000E+00  0.00000000E+00  0.00000000E+00
  0.00000000E+00  0.00000000E+00  0.00000000E+00
