generated by phonopy                    
   0.9932883883792687     
    28.2271641090442564    0.0000000000000000    0.0000000000000000
    -0.0000000000000000    5.1105732657447476    0.0000000000000000
     0.0000000000000000   -2.5552866328723738    4.4258862760365494
   Co   Ru
    48     8
Direct
  0.0385941249547130  0.3333333333333286  0.1666666666666714
  0.0385941249547130  0.3333333333333286  0.6666666666666714
  0.0385941249547130  0.8333333333333286  0.1666666666666714
  0.0385941249547130  0.8333333333333286  0.6666666666666714
  0.1086432977282712  0.1666666666666714  0.3333333333333286
  0.1086432977282712  0.1666666666666714  0.8333333333333286
  0.1086432977282712  0.6666666666666714  0.3333333333333286
  0.1086432977282712  0.6666666666666714  0.8333333333333286
  0.1791451080540938  0.3333333333333286  0.1666666666666714
  0.1791451080540938  0.3333333333333286  0.6666666666666714
  0.1791451080540938  0.8333333333333286  0.1666666666666714
  0.1791451080540938  0.8333333333333286  0.6666666666666714
  0.2494263205173368  0.1666666666666714  0.3333333333333286
  0.2494263205173368  0.1666666666666714  0.8333333333333286
  0.2494263205173368  0.6666666666666714  0.3333333333333286
  0.2494263205173368  0.6666666666666714  0.8333333333333286
  0.3199281308431523  0.3333333333333286  0.1666666666666714
  0.3199281308431523  0.3333333333333286  0.6666666666666714
  0.3199281308431523  0.8333333333333286  0.1666666666666714
  0.3199281308431523  0.8333333333333286  0.6666666666666714
  0.3899773036167176  0.1666666666666714  0.3333333333333286
  0.3899773036167176  0.1666666666666714  0.8333333333333286
  0.3899773036167176  0.6666666666666714  0.3333333333333286
  0.3899773036167176  0.6666666666666714  0.8333333333333286
  0.5385941249547130  0.1666666666666714  0.3333333333333286
  0.5385941249547130  0.1666666666666714  0.8333333333333286
  0.5385941249547130  0.6666666666666714  0.3333333333333286
  0.5385941249547130  0.6666666666666714  0.8333333333333286
  0.6086432977282712  0.3333333333333286  0.1666666666666714
  0.6086432977282712  0.3333333333333286  0.6666666666666714
  0.6086432977282712  0.8333333333333286  0.1666666666666714
  0.6086432977282712  0.8333333333333286  0.6666666666666714
  0.6791451080540938  0.1666666666666714  0.3333333333333286
  0.6791451080540938  0.1666666666666714  0.8333333333333286
  0.6791451080540938  0.6666666666666714  0.3333333333333286
  0.6791451080540938  0.6666666666666714  0.8333333333333286
  0.7494263205173368  0.3333333333333286  0.1666666666666714
  0.7494263205173368  0.3333333333333286  0.6666666666666714
  0.7494263205173368  0.8333333333333286  0.1666666666666714
  0.7494263205173368  0.8333333333333286  0.6666666666666714
  0.8199281308431523  0.1666666666666714  0.3333333333333286
  0.8199281308431523  0.1666666666666714  0.8333333333333286
  0.8199281308431523  0.6666666666666714  0.3333333333333286
  0.8199281308431523  0.6666666666666714  0.8333333333333286
  0.8899773036167176  0.3333333333333286  0.1666666666666714
  0.8899773036167176  0.3333333333333286  0.6666666666666714
  0.8899773036167176  0.8333333333333286  0.1666666666666714
  0.8899773036167176  0.8333333333333286  0.6666666666666714
  0.4642857142857153  0.3333333333333286  0.1666666666666714
  0.4642857142857153  0.3333333333333286  0.6666666666666714
  0.4642857142857153  0.8333333333333286  0.1666666666666714
  0.4642857142857153  0.8333333333333286  0.6666666666666714
  0.9642857142857153  0.1666666666666714  0.3333333333333286
  0.9642857142857153  0.1666666666666714  0.8333333333333286
  0.9642857142857153  0.6666666666666714  0.3333333333333286
  0.9642857142857153  0.6666666666666714  0.8333333333333286
 
  0.00000000E+00  0.00000000E+00  0.00000000E+00
  0.00000000E+00  0.00000000E+00  0.00000000E+00
  0.00000000E+00  0.00000000E+00  0.00000000E+00
  0.00000000E+00  0.00000000E+00  0.00000000E+00
  0.00000000E+00  0.00000000E+00  0.00000000E+00
  0.00000000E+00  0.00000000E+00  0.00000000E+00
  0.00000000E+00  0.00000000E+00  0.00000000E+00
  0.00000000E+00  0.00000000E+00  0.00000000E+00
  0.00000000E+00  0.00000000E+00  0.00000000E+00
  0.00000000E+00  0.00000000E+00  0.00000000E+00
  0.00000000E+00  0.00000000E+00  0.00000000E+00
  0.00000000E+00  0.00000000E+00  0.00000000E+00
  0.00000000E+00  0.00000000E+00  0.00000000E+00
  0.00000000E+00  0.00000000E+00  0.00000000E+00
  0.00000000E+00  0.00000000E+00  0.00000000E+00
  0.00000000E+00  0.00000000E+00  0.00000000E+00
  0.00000000E+00  0.00000000E+00  0.00000000E+00
  0.00000000E+00  0.00000000E+00  0.00000000E+00
  0.00000000E+00  0.00000000E+00  0.00000000E+00
  0.00000000E+00  0.00000000E+00  0.00000000E+00
  0.00000000E+00  0.00000000E+00  0.00000000E+00
  0.00000000E+00  0.00000000E+00  0.00000000E+00
  0.00000000E+00  0.00000000E+00  0.00000000E+00
  0.00000000E+00  0.00000000E+00  0.00000000E+00
  0.00000000E+00  0.00000000E+00  0.00000000E+00
  0.00000000E+00  0.00000000E+00  0.00000000E+00
  0.00000000E+00  0.00000000E+00  0.00000000E+00
  0.00000000E+00  0.00000000E+00  0.00000000E+00
  0.00000000E+00  0.00000000E+00  0.00000000E+00
  0.00000000E+00  0.00000000E+00  0.00000000E+00
  0.00000000E+00  0.00000000E+00  0.00000000E+00
  0.00000000E+00  0.00000000E+00  0.00000000E+00
  0.00000000E+00  0.00000000E+00  0.00000000E+00
  0.00000000E+00  0.00000000E+00  0.00000000E+00
  0.00000000E+00  0.00000000E+00  0.00000000E+00
  0.00000000E+00  0.00000000E+00  0.00000000E+00
  0.00000000E+00  0.00000000E+00  0.00000000E+00
  0.00000000E+00  0.00000000E+00  0.00000000E+00
  0.00000000E+00  0.00000000E+00  0.00000000E+00
  0.00000000E+00  0.00000000E+00  0.00000000E+00
  0.00000000E+00  0.00000000E+00  0.00000000E+00
  0.00000000E+00  0.00000000E+00  0.00000000E+00
  0.00000000E+00  0.00000000E+00  0.00000000E+00
  0.00000000E+00  0.00000000E+00  0.00000000E+00
  0.00000000E+00  0.00000000E+00  0.00000000E+00
  0.00000000E+00  0.00000000E+00  0.00000000E+00
  0.00000000E+00  0.00000000E+00  0.00000000E+00
  0.00000000E+00  0.00000000E+00  0.00000000E+00
  0.00000000E+00  0.00000000E+00  0.00000000E+00
  0.00000000E+00  0.00000000E+00  0.00000000E+00
  0.00000000E+00  0.00000000E+00  0.00000000E+00
  0.00000000E+00  0.00000000E+00  0.00000000E+00
  0.00000000E+00  0.00000000E+00  0.00000000E+00
  0.00000000E+00  0.00000000E+00  0.00000000E+00
  0.00000000E+00  0.00000000E+00  0.00000000E+00
  0.00000000E+00  0.00000000E+00  0.00000000E+00
