generated by phonopy                    
    1.006622709560112     
    28.2448051762473717    0.0000000000000000    0.0000000000000000
    -0.0000000000000000    5.1089770421629677    0.0000000000000000
     0.0000000000000000   -2.5544885210814838    4.4245039058646132
   Co   Ru
    48     8
Direct
  0.0383547009308373  0.3333333333333286  0.1666666666666714
  0.0383547009308373  0.3333333333333286  0.6666666666666714
  0.0383547009308373  0.8333333333333286  0.1666666666666714
  0.0383547009308373  0.8333333333333286  0.6666666666666714
  0.1085724913254465  0.1666666666666714  0.3333333333333286
  0.1085724913254465  0.1666666666666714  0.8333333333333286
  0.1085724913254465  0.6666666666666714  0.3333333333333286
  0.1085724913254465  0.6666666666666714  0.8333333333333286
  0.1791383724270837  0.3333333333333286  0.1666666666666714
  0.1791383724270837  0.3333333333333286  0.6666666666666714
  0.1791383724270837  0.8333333333333286  0.1666666666666714
  0.1791383724270837  0.8333333333333286  0.6666666666666714
  0.2494330561443469  0.1666666666666714  0.3333333333333286
  0.2494330561443469  0.1666666666666714  0.8333333333333286
  0.2494330561443469  0.6666666666666714  0.3333333333333286
  0.2494330561443469  0.6666666666666714  0.8333333333333286
  0.3199989372459770  0.3333333333333286  0.1666666666666714
  0.3199989372459770  0.3333333333333286  0.6666666666666714
  0.3199989372459770  0.8333333333333286  0.1666666666666714
  0.3199989372459770  0.8333333333333286  0.6666666666666714
  0.3902167276405933  0.1666666666666714  0.3333333333333286
  0.3902167276405933  0.1666666666666714  0.8333333333333286
  0.3902167276405933  0.6666666666666714  0.3333333333333286
  0.3902167276405933  0.6666666666666714  0.8333333333333286
  0.5383547009308370  0.1666666666666714  0.3333333333333286
  0.5383547009308370  0.1666666666666714  0.8333333333333286
  0.5383547009308370  0.6666666666666714  0.3333333333333286
  0.5383547009308370  0.6666666666666714  0.8333333333333286
  0.6085724913254467  0.3333333333333286  0.1666666666666714
  0.6085724913254467  0.3333333333333286  0.6666666666666714
  0.6085724913254467  0.8333333333333286  0.1666666666666714
  0.6085724913254467  0.8333333333333286  0.6666666666666714
  0.6791383724270842  0.1666666666666714  0.3333333333333286
  0.6791383724270842  0.1666666666666714  0.8333333333333286
  0.6791383724270842  0.6666666666666714  0.3333333333333286
  0.6791383724270842  0.6666666666666714  0.8333333333333286
  0.7494330561443464  0.3333333333333286  0.1666666666666714
  0.7494330561443464  0.3333333333333286  0.6666666666666714
  0.7494330561443464  0.8333333333333286  0.1666666666666714
  0.7494330561443464  0.8333333333333286  0.6666666666666714
  0.8199989372459768  0.1666666666666714  0.3333333333333286
  0.8199989372459768  0.1666666666666714  0.8333333333333286
  0.8199989372459768  0.6666666666666714  0.3333333333333286
  0.8199989372459768  0.6666666666666714  0.8333333333333286
  0.8902167276405936  0.3333333333333286  0.1666666666666714
  0.8902167276405936  0.3333333333333286  0.6666666666666714
  0.8902167276405936  0.8333333333333286  0.1666666666666714
  0.8902167276405936  0.8333333333333286  0.6666666666666714
  0.4642857142857153  0.3333333333333286  0.1666666666666714
  0.4642857142857153  0.3333333333333286  0.6666666666666714
  0.4642857142857153  0.8333333333333286  0.1666666666666714
  0.4642857142857153  0.8333333333333286  0.6666666666666714
  0.9642857142857153  0.1666666666666714  0.3333333333333286
  0.9642857142857153  0.1666666666666714  0.8333333333333286
  0.9642857142857153  0.6666666666666714  0.3333333333333286
  0.9642857142857153  0.6666666666666714  0.8333333333333286
 
  0.00000000E+00  0.00000000E+00  0.00000000E+00
  0.00000000E+00  0.00000000E+00  0.00000000E+00
  0.00000000E+00  0.00000000E+00  0.00000000E+00
  0.00000000E+00  0.00000000E+00  0.00000000E+00
  0.00000000E+00  0.00000000E+00  0.00000000E+00
  0.00000000E+00  0.00000000E+00  0.00000000E+00
  0.00000000E+00  0.00000000E+00  0.00000000E+00
  0.00000000E+00  0.00000000E+00  0.00000000E+00
  0.00000000E+00  0.00000000E+00  0.00000000E+00
  0.00000000E+00  0.00000000E+00  0.00000000E+00
  0.00000000E+00  0.00000000E+00  0.00000000E+00
  0.00000000E+00  0.00000000E+00  0.00000000E+00
  0.00000000E+00  0.00000000E+00  0.00000000E+00
  0.00000000E+00  0.00000000E+00  0.00000000E+00
  0.00000000E+00  0.00000000E+00  0.00000000E+00
  0.00000000E+00  0.00000000E+00  0.00000000E+00
  0.00000000E+00  0.00000000E+00  0.00000000E+00
  0.00000000E+00  0.00000000E+00  0.00000000E+00
  0.00000000E+00  0.00000000E+00  0.00000000E+00
  0.00000000E+00  0.00000000E+00  0.00000000E+00
  0.00000000E+00  0.00000000E+00  0.00000000E+00
  0.00000000E+00  0.00000000E+00  0.00000000E+00
  0.00000000E+00  0.00000000E+00  0.00000000E+00
  0.00000000E+00  0.00000000E+00  0.00000000E+00
  0.00000000E+00  0.00000000E+00  0.00000000E+00
  0.00000000E+00  0.00000000E+00  0.00000000E+00
  0.00000000E+00  0.00000000E+00  0.00000000E+00
  0.00000000E+00  0.00000000E+00  0.00000000E+00
  0.00000000E+00  0.00000000E+00  0.00000000E+00
  0.00000000E+00  0.00000000E+00  0.00000000E+00
  0.00000000E+00  0.00000000E+00  0.00000000E+00
  0.00000000E+00  0.00000000E+00  0.00000000E+00
  0.00000000E+00  0.00000000E+00  0.00000000E+00
  0.00000000E+00  0.00000000E+00  0.00000000E+00
  0.00000000E+00  0.00000000E+00  0.00000000E+00
  0.00000000E+00  0.00000000E+00  0.00000000E+00
  0.00000000E+00  0.00000000E+00  0.00000000E+00
  0.00000000E+00  0.00000000E+00  0.00000000E+00
  0.00000000E+00  0.00000000E+00  0.00000000E+00
  0.00000000E+00  0.00000000E+00  0.00000000E+00
  0.00000000E+00  0.00000000E+00  0.00000000E+00
  0.00000000E+00  0.00000000E+00  0.00000000E+00
  0.00000000E+00  0.00000000E+00  0.00000000E+00
  0.00000000E+00  0.00000000E+00  0.00000000E+00
  0.00000000E+00  0.00000000E+00  0.00000000E+00
  0.00000000E+00  0.00000000E+00  0.00000000E+00
  0.00000000E+00  0.00000000E+00  0.00000000E+00
  0.00000000E+00  0.00000000E+00  0.00000000E+00
  0.00000000E+00  0.00000000E+00  0.00000000E+00
  0.00000000E+00  0.00000000E+00  0.00000000E+00
  0.00000000E+00  0.00000000E+00  0.00000000E+00
  0.00000000E+00  0.00000000E+00  0.00000000E+00
  0.00000000E+00  0.00000000E+00  0.00000000E+00
  0.00000000E+00  0.00000000E+00  0.00000000E+00
  0.00000000E+00  0.00000000E+00  0.00000000E+00
  0.00000000E+00  0.00000000E+00  0.00000000E+00
