generated by phonopy                    
   1.02842901719620     
    55.6523677612597609   -0.0000000000000000    0.0000000000000000
    -0.0000000000000000    5.0759595102608586    0.0000000000000007
     0.0000000000000000   -2.5379797551304302    4.3959098844671223
   Co   Ru
    88    24
Direct
  0.0220344107759798  0.3333333333333286  0.1666666666666714
  0.0220344107759798  0.3333333333333286  0.6666666666666714
  0.0220344107759798  0.8333333333333286  0.1666666666666714
  0.0220344107759798  0.8333333333333286  0.6666666666666714
  0.0566938738981240  0.1666666666666714  0.3333333333333286
  0.0566938738981240  0.1666666666666714  0.8333333333333286
  0.0566938738981240  0.6666666666666714  0.3333333333333286
  0.0566938738981240  0.6666666666666714  0.8333333333333286
  0.0916912762397067  0.3333333333333286  0.1666666666666714
  0.0916912762397067  0.3333333333333286  0.6666666666666714
  0.0916912762397067  0.8333333333333286  0.1666666666666714
  0.0916912762397067  0.8333333333333286  0.6666666666666714
  0.1265805524444049  0.1666666666666714  0.3333333333333286
  0.1265805524444049  0.1666666666666714  0.8333333333333286
  0.1265805524444049  0.6666666666666714  0.3333333333333286
  0.1265805524444049  0.6666666666666714  0.8333333333333286
  0.1615108792129832  0.3333333333333286  0.1666666666666714
  0.1615108792129832  0.3333333333333286  0.6666666666666714
  0.1615108792129832  0.8333333333333286  0.1666666666666714
  0.1615108792129832  0.8333333333333286  0.6666666666666714
  0.1964318206572983  0.1666666666666714  0.3333333333333286
  0.1964318206572983  0.1666666666666714  0.8333333333333286
  0.1964318206572983  0.6666666666666714  0.3333333333333286
  0.1964318206572983  0.6666666666666714  0.8333333333333286
  0.2313524950364456  0.3333333333333286  0.1666666666666714
  0.2313524950364456  0.3333333333333286  0.6666666666666714
  0.2313524950364456  0.8333333333333286  0.1666666666666714
  0.2313524950364456  0.8333333333333286  0.6666666666666714
  0.2662811431243219  0.1666666666666714  0.3333333333333286
  0.2662811431243219  0.1666666666666714  0.8333333333333286
  0.2662811431243219  0.6666666666666714  0.3333333333333286
  0.2662811431243219  0.6666666666666714  0.8333333333333286
  0.3011682919071160  0.3333333333333286  0.1666666666666714
  0.3011682919071160  0.3333333333333286  0.6666666666666714
  0.3011682919071160  0.8333333333333286  0.1666666666666714
  0.3011682919071160  0.8333333333333286  0.6666666666666714
  0.3361621311827188  0.1666666666666714  0.3333333333333286
  0.3361621311827188  0.1666666666666714  0.8333333333333286
  0.3361621311827188  0.6666666666666714  0.3333333333333286
  0.3361621311827188  0.6666666666666714  0.8333333333333286
  0.3708183088104728  0.3333333333333286  0.1666666666666714
  0.3708183088104728  0.3333333333333286  0.6666666666666714
  0.3708183088104728  0.8333333333333286  0.1666666666666714
  0.3708183088104728  0.8333333333333286  0.6666666666666714
  0.5220344107759876  0.3333333333333286  0.1666666666666714
  0.5220344107759876  0.3333333333333286  0.6666666666666714
  0.5220344107759876  0.8333333333333286  0.1666666666666714
  0.5220344107759876  0.8333333333333286  0.6666666666666714
  0.5566938738981245  0.1666666666666714  0.3333333333333286
  0.5566938738981245  0.1666666666666714  0.8333333333333286
  0.5566938738981245  0.6666666666666714  0.3333333333333286
  0.5566938738981245  0.6666666666666714  0.8333333333333286
  0.5916912762397066  0.3333333333333286  0.1666666666666714
  0.5916912762397066  0.3333333333333286  0.6666666666666714
  0.5916912762397066  0.8333333333333286  0.1666666666666714
  0.5916912762397066  0.8333333333333286  0.6666666666666714
  0.6265805524444110  0.1666666666666714  0.3333333333333286
  0.6265805524444110  0.1666666666666714  0.8333333333333286
  0.6265805524444110  0.6666666666666714  0.3333333333333286
  0.6265805524444110  0.6666666666666714  0.8333333333333286
  0.6615108792129835  0.3333333333333286  0.1666666666666714
  0.6615108792129835  0.3333333333333286  0.6666666666666714
  0.6615108792129835  0.8333333333333286  0.1666666666666714
  0.6615108792129835  0.8333333333333286  0.6666666666666714
  0.6964318206573050  0.1666666666666714  0.3333333333333286
  0.6964318206573050  0.1666666666666714  0.8333333333333286
  0.6964318206573050  0.6666666666666714  0.3333333333333286
  0.6964318206573050  0.6666666666666714  0.8333333333333286
  0.7313524950364376  0.3333333333333286  0.1666666666666714
  0.7313524950364376  0.3333333333333286  0.6666666666666714
  0.7313524950364376  0.8333333333333286  0.1666666666666714
  0.7313524950364376  0.8333333333333286  0.6666666666666714
  0.7662811431243072  0.1666666666666714  0.3333333333333286
  0.7662811431243072  0.1666666666666714  0.8333333333333286
  0.7662811431243072  0.6666666666666714  0.3333333333333286
  0.7662811431243072  0.6666666666666714  0.8333333333333286
  0.8011682919071164  0.3333333333333286  0.1666666666666714
  0.8011682919071164  0.3333333333333286  0.6666666666666714
  0.8011682919071164  0.8333333333333286  0.1666666666666714
  0.8011682919071164  0.8333333333333286  0.6666666666666714
  0.8361621311826960  0.1666666666666714  0.3333333333333286
  0.8361621311826960  0.1666666666666714  0.8333333333333286
  0.8361621311826960  0.6666666666666714  0.3333333333333286
  0.8361621311826960  0.6666666666666714  0.8333333333333286
  0.8708183088104722  0.3333333333333286  0.1666666666666714
  0.8708183088104722  0.3333333333333286  0.6666666666666714
  0.8708183088104722  0.8333333333333286  0.1666666666666714
  0.8708183088104722  0.8333333333333286  0.6666666666666714
  0.4081999549765788  0.1666666666666714  0.3333333333333286
  0.4081999549765788  0.1666666666666714  0.8333333333333286
  0.4081999549765788  0.6666666666666714  0.3333333333333286
  0.4081999549765788  0.6666666666666714  0.8333333333333286
  0.4464248347377928  0.3333333333333286  0.1666666666666714
  0.4464248347377928  0.3333333333333286  0.6666666666666714
  0.4464248347377928  0.8333333333333286  0.1666666666666714
  0.4464248347377928  0.8333333333333286  0.6666666666666714
  0.4846500269960717  0.1666666666666714  0.3333333333333286
  0.4846500269960717  0.1666666666666714  0.8333333333333286
  0.4846500269960717  0.6666666666666714  0.3333333333333286
  0.4846500269960717  0.6666666666666714  0.8333333333333286
  0.9081999549765722  0.1666666666666714  0.3333333333333286
  0.9081999549765722  0.1666666666666714  0.8333333333333286
  0.9081999549765722  0.6666666666666714  0.3333333333333286
  0.9081999549765722  0.6666666666666714  0.8333333333333286
  0.9464248347377924  0.3333333333333286  0.1666666666666714
  0.9464248347377924  0.3333333333333286  0.6666666666666714
  0.9464248347377924  0.8333333333333286  0.1666666666666714
  0.9464248347377924  0.8333333333333286  0.6666666666666714
  0.9846500269960726  0.1666666666666714  0.3333333333333286
  0.9846500269960726  0.1666666666666714  0.8333333333333286
  0.9846500269960726  0.6666666666666714  0.3333333333333286
  0.9846500269960726  0.6666666666666714  0.8333333333333286
 
  0.00000000E+00  0.00000000E+00  0.00000000E+00
  0.00000000E+00  0.00000000E+00  0.00000000E+00
  0.00000000E+00  0.00000000E+00  0.00000000E+00
  0.00000000E+00  0.00000000E+00  0.00000000E+00
  0.00000000E+00  0.00000000E+00  0.00000000E+00
  0.00000000E+00  0.00000000E+00  0.00000000E+00
  0.00000000E+00  0.00000000E+00  0.00000000E+00
  0.00000000E+00  0.00000000E+00  0.00000000E+00
  0.00000000E+00  0.00000000E+00  0.00000000E+00
  0.00000000E+00  0.00000000E+00  0.00000000E+00
  0.00000000E+00  0.00000000E+00  0.00000000E+00
  0.00000000E+00  0.00000000E+00  0.00000000E+00
  0.00000000E+00  0.00000000E+00  0.00000000E+00
  0.00000000E+00  0.00000000E+00  0.00000000E+00
  0.00000000E+00  0.00000000E+00  0.00000000E+00
  0.00000000E+00  0.00000000E+00  0.00000000E+00
  0.00000000E+00  0.00000000E+00  0.00000000E+00
  0.00000000E+00  0.00000000E+00  0.00000000E+00
  0.00000000E+00  0.00000000E+00  0.00000000E+00
  0.00000000E+00  0.00000000E+00  0.00000000E+00
  0.00000000E+00  0.00000000E+00  0.00000000E+00
  0.00000000E+00  0.00000000E+00  0.00000000E+00
  0.00000000E+00  0.00000000E+00  0.00000000E+00
  0.00000000E+00  0.00000000E+00  0.00000000E+00
  0.00000000E+00  0.00000000E+00  0.00000000E+00
  0.00000000E+00  0.00000000E+00  0.00000000E+00
  0.00000000E+00  0.00000000E+00  0.00000000E+00
  0.00000000E+00  0.00000000E+00  0.00000000E+00
  0.00000000E+00  0.00000000E+00  0.00000000E+00
  0.00000000E+00  0.00000000E+00  0.00000000E+00
  0.00000000E+00  0.00000000E+00  0.00000000E+00
  0.00000000E+00  0.00000000E+00  0.00000000E+00
  0.00000000E+00  0.00000000E+00  0.00000000E+00
  0.00000000E+00  0.00000000E+00  0.00000000E+00
  0.00000000E+00  0.00000000E+00  0.00000000E+00
  0.00000000E+00  0.00000000E+00  0.00000000E+00
  0.00000000E+00  0.00000000E+00  0.00000000E+00
  0.00000000E+00  0.00000000E+00  0.00000000E+00
  0.00000000E+00  0.00000000E+00  0.00000000E+00
  0.00000000E+00  0.00000000E+00  0.00000000E+00
  0.00000000E+00  0.00000000E+00  0.00000000E+00
  0.00000000E+00  0.00000000E+00  0.00000000E+00
  0.00000000E+00  0.00000000E+00  0.00000000E+00
  0.00000000E+00  0.00000000E+00  0.00000000E+00
  0.00000000E+00  0.00000000E+00  0.00000000E+00
  0.00000000E+00  0.00000000E+00  0.00000000E+00
  0.00000000E+00  0.00000000E+00  0.00000000E+00
  0.00000000E+00  0.00000000E+00  0.00000000E+00
  0.00000000E+00  0.00000000E+00  0.00000000E+00
  0.00000000E+00  0.00000000E+00  0.00000000E+00
  0.00000000E+00  0.00000000E+00  0.00000000E+00
  0.00000000E+00  0.00000000E+00  0.00000000E+00
  0.00000000E+00  0.00000000E+00  0.00000000E+00
  0.00000000E+00  0.00000000E+00  0.00000000E+00
  0.00000000E+00  0.00000000E+00  0.00000000E+00
  0.00000000E+00  0.00000000E+00  0.00000000E+00
  0.00000000E+00  0.00000000E+00  0.00000000E+00
  0.00000000E+00  0.00000000E+00  0.00000000E+00
  0.00000000E+00  0.00000000E+00  0.00000000E+00
  0.00000000E+00  0.00000000E+00  0.00000000E+00
  0.00000000E+00  0.00000000E+00  0.00000000E+00
  0.00000000E+00  0.00000000E+00  0.00000000E+00
  0.00000000E+00  0.00000000E+00  0.00000000E+00
  0.00000000E+00  0.00000000E+00  0.00000000E+00
  0.00000000E+00  0.00000000E+00  0.00000000E+00
  0.00000000E+00  0.00000000E+00  0.00000000E+00
  0.00000000E+00  0.00000000E+00  0.00000000E+00
  0.00000000E+00  0.00000000E+00  0.00000000E+00
  0.00000000E+00  0.00000000E+00  0.00000000E+00
  0.00000000E+00  0.00000000E+00  0.00000000E+00
  0.00000000E+00  0.00000000E+00  0.00000000E+00
  0.00000000E+00  0.00000000E+00  0.00000000E+00
  0.00000000E+00  0.00000000E+00  0.00000000E+00
  0.00000000E+00  0.00000000E+00  0.00000000E+00
  0.00000000E+00  0.00000000E+00  0.00000000E+00
  0.00000000E+00  0.00000000E+00  0.00000000E+00
  0.00000000E+00  0.00000000E+00  0.00000000E+00
  0.00000000E+00  0.00000000E+00  0.00000000E+00
  0.00000000E+00  0.00000000E+00  0.00000000E+00
  0.00000000E+00  0.00000000E+00  0.00000000E+00
  0.00000000E+00  0.00000000E+00  0.00000000E+00
  0.00000000E+00  0.00000000E+00  0.00000000E+00
  0.00000000E+00  0.00000000E+00  0.00000000E+00
  0.00000000E+00  0.00000000E+00  0.00000000E+00
  0.00000000E+00  0.00000000E+00  0.00000000E+00
  0.00000000E+00  0.00000000E+00  0.00000000E+00
  0.00000000E+00  0.00000000E+00  0.00000000E+00
  0.00000000E+00  0.00000000E+00  0.00000000E+00
  0.00000000E+00  0.00000000E+00  0.00000000E+00
  0.00000000E+00  0.00000000E+00  0.00000000E+00
  0.00000000E+00  0.00000000E+00  0.00000000E+00
  0.00000000E+00  0.00000000E+00  0.00000000E+00
  0.00000000E+00  0.00000000E+00  0.00000000E+00
  0.00000000E+00  0.00000000E+00  0.00000000E+00
  0.00000000E+00  0.00000000E+00  0.00000000E+00
  0.00000000E+00  0.00000000E+00  0.00000000E+00
  0.00000000E+00  0.00000000E+00  0.00000000E+00
  0.00000000E+00  0.00000000E+00  0.00000000E+00
  0.00000000E+00  0.00000000E+00  0.00000000E+00
  0.00000000E+00  0.00000000E+00  0.00000000E+00
  0.00000000E+00  0.00000000E+00  0.00000000E+00
  0.00000000E+00  0.00000000E+00  0.00000000E+00
  0.00000000E+00  0.00000000E+00  0.00000000E+00
  0.00000000E+00  0.00000000E+00  0.00000000E+00
  0.00000000E+00  0.00000000E+00  0.00000000E+00
  0.00000000E+00  0.00000000E+00  0.00000000E+00
  0.00000000E+00  0.00000000E+00  0.00000000E+00
  0.00000000E+00  0.00000000E+00  0.00000000E+00
  0.00000000E+00  0.00000000E+00  0.00000000E+00
  0.00000000E+00  0.00000000E+00  0.00000000E+00
  0.00000000E+00  0.00000000E+00  0.00000000E+00
  0.00000000E+00  0.00000000E+00  0.00000000E+00
