generated by phonopy                    
   1.01487418303515     
    55.6359371768871966   -0.0000000000000000   -0.0000000000000000
     0.0000000000000000    5.0767089792963800   -0.0000000000000001
    -0.0000000000000000   -2.5383544896481909    4.3965589436912307
   Co   Ru
    88    24
Direct
  0.0223644540467817  0.3333333333333286  0.1666666666666714
  0.0223644540467817  0.3333333333333286  0.6666666666666714
  0.0223644540467817  0.8333333333333286  0.1666666666666714
  0.0223644540467817  0.8333333333333286  0.6666666666666714
  0.0569778947533647  0.1666666666666714  0.3333333333333286
  0.0569778947533647  0.1666666666666714  0.8333333333333286
  0.0569778947533647  0.6666666666666714  0.3333333333333286
  0.0569778947533647  0.6666666666666714  0.8333333333333286
  0.0918425550928176  0.3333333333333286  0.1666666666666714
  0.0918425550928176  0.3333333333333286  0.6666666666666714
  0.0918425550928176  0.8333333333333286  0.1666666666666714
  0.0918425550928176  0.8333333333333286  0.6666666666666714
  0.1267049968262401  0.1666666666666714  0.3333333333333286
  0.1267049968262401  0.1666666666666714  0.8333333333333286
  0.1267049968262401  0.6666666666666714  0.3333333333333286
  0.1267049968262401  0.6666666666666714  0.8333333333333286
  0.1615576435952117  0.3333333333333286  0.1666666666666714
  0.1615576435952117  0.3333333333333286  0.6666666666666714
  0.1615576435952117  0.8333333333333286  0.1666666666666714
  0.1615576435952117  0.8333333333333286  0.6666666666666714
  0.1964392592088115  0.1666666666666714  0.3333333333333286
  0.1964392592088115  0.1666666666666714  0.8333333333333286
  0.1964392592088115  0.6666666666666714  0.3333333333333286
  0.1964392592088115  0.6666666666666714  0.8333333333333286
  0.2313186747444938  0.3333333333333286  0.1666666666666714
  0.2313186747444938  0.3333333333333286  0.6666666666666714
  0.2313186747444938  0.8333333333333286  0.1666666666666714
  0.2313186747444938  0.8333333333333286  0.6666666666666714
  0.2661649692127708  0.1666666666666714  0.3333333333333286
  0.2661649692127708  0.1666666666666714  0.8333333333333286
  0.2661649692127708  0.6666666666666714  0.3333333333333286
  0.2661649692127708  0.6666666666666714  0.8333333333333286
  0.3010194797548217  0.3333333333333286  0.1666666666666714
  0.3010194797548217  0.3333333333333286  0.6666666666666714
  0.3010194797548217  0.8333333333333286  0.1666666666666714
  0.3010194797548217  0.8333333333333286  0.6666666666666714
  0.3358741496679747  0.1666666666666714  0.3333333333333286
  0.3358741496679747  0.1666666666666714  0.8333333333333286
  0.3358741496679747  0.6666666666666714  0.3333333333333286
  0.3358741496679747  0.6666666666666714  0.8333333333333286
  0.3704795217177611  0.3333333333333286  0.1666666666666714
  0.3704795217177611  0.3333333333333286  0.6666666666666714
  0.3704795217177611  0.8333333333333286  0.1666666666666714
  0.3704795217177611  0.8333333333333286  0.6666666666666714
  0.5223644540467881  0.3333333333333286  0.1666666666666714
  0.5223644540467881  0.3333333333333286  0.6666666666666714
  0.5223644540467881  0.8333333333333286  0.1666666666666714
  0.5223644540467881  0.8333333333333286  0.6666666666666714
  0.5569778947533646  0.1666666666666714  0.3333333333333286
  0.5569778947533646  0.1666666666666714  0.8333333333333286
  0.5569778947533646  0.6666666666666714  0.3333333333333286
  0.5569778947533646  0.6666666666666714  0.8333333333333286
  0.5918425550928174  0.3333333333333286  0.1666666666666714
  0.5918425550928174  0.3333333333333286  0.6666666666666714
  0.5918425550928174  0.8333333333333286  0.1666666666666714
  0.5918425550928174  0.8333333333333286  0.6666666666666714
  0.6267049968262471  0.1666666666666714  0.3333333333333286
  0.6267049968262471  0.1666666666666714  0.8333333333333286
  0.6267049968262471  0.6666666666666714  0.3333333333333286
  0.6267049968262471  0.6666666666666714  0.8333333333333286
  0.6615576435952109  0.3333333333333286  0.1666666666666714
  0.6615576435952109  0.3333333333333286  0.6666666666666714
  0.6615576435952109  0.8333333333333286  0.1666666666666714
  0.6615576435952109  0.8333333333333286  0.6666666666666714
  0.6964392592088189  0.1666666666666714  0.3333333333333286
  0.6964392592088189  0.1666666666666714  0.8333333333333286
  0.6964392592088189  0.6666666666666714  0.3333333333333286
  0.6964392592088189  0.6666666666666714  0.8333333333333286
  0.7313186747444880  0.3333333333333286  0.1666666666666714
  0.7313186747444880  0.3333333333333286  0.6666666666666714
  0.7313186747444880  0.8333333333333286  0.1666666666666714
  0.7313186747444880  0.8333333333333286  0.6666666666666714
  0.7661649692127568  0.1666666666666714  0.3333333333333286
  0.7661649692127568  0.1666666666666714  0.8333333333333286
  0.7661649692127568  0.6666666666666714  0.3333333333333286
  0.7661649692127568  0.6666666666666714  0.8333333333333286
  0.8010194797548231  0.3333333333333286  0.1666666666666714
  0.8010194797548231  0.3333333333333286  0.6666666666666714
  0.8010194797548231  0.8333333333333286  0.1666666666666714
  0.8010194797548231  0.8333333333333286  0.6666666666666714
  0.8358741496679529  0.1666666666666714  0.3333333333333286
  0.8358741496679529  0.1666666666666714  0.8333333333333286
  0.8358741496679529  0.6666666666666714  0.3333333333333286
  0.8358741496679529  0.6666666666666714  0.8333333333333286
  0.8704795217177620  0.3333333333333286  0.1666666666666714
  0.8704795217177620  0.3333333333333286  0.6666666666666714
  0.8704795217177620  0.8333333333333286  0.1666666666666714
  0.8704795217177620  0.8333333333333286  0.6666666666666714
  0.4077903520274277  0.1666666666666714  0.3333333333333286
  0.4077903520274277  0.1666666666666714  0.8333333333333286
  0.4077903520274277  0.6666666666666714  0.3333333333333286
  0.4077903520274277  0.6666666666666714  0.8333333333333286
  0.4464184526977500  0.3333333333333286  0.1666666666666714
  0.4464184526977500  0.3333333333333286  0.6666666666666714
  0.4464184526977500  0.8333333333333286  0.1666666666666714
  0.4464184526977500  0.8333333333333286  0.6666666666666714
  0.4850475966537801  0.1666666666666714  0.3333333333333286
  0.4850475966537801  0.1666666666666714  0.8333333333333286
  0.4850475966537801  0.6666666666666714  0.3333333333333286
  0.4850475966537801  0.6666666666666714  0.8333333333333286
  0.9077903520274202  0.1666666666666714  0.3333333333333286
  0.9077903520274202  0.1666666666666714  0.8333333333333286
  0.9077903520274202  0.6666666666666714  0.3333333333333286
  0.9077903520274202  0.6666666666666714  0.8333333333333286
  0.9464184526977492  0.3333333333333286  0.1666666666666714
  0.9464184526977492  0.3333333333333286  0.6666666666666714
  0.9464184526977492  0.8333333333333286  0.1666666666666714
  0.9464184526977492  0.8333333333333286  0.6666666666666714
  0.9850475966537795  0.1666666666666714  0.3333333333333286
  0.9850475966537795  0.1666666666666714  0.8333333333333286
  0.9850475966537795  0.6666666666666714  0.3333333333333286
  0.9850475966537795  0.6666666666666714  0.8333333333333286
 
  0.00000000E+00  0.00000000E+00  0.00000000E+00
  0.00000000E+00  0.00000000E+00  0.00000000E+00
  0.00000000E+00  0.00000000E+00  0.00000000E+00
  0.00000000E+00  0.00000000E+00  0.00000000E+00
  0.00000000E+00  0.00000000E+00  0.00000000E+00
  0.00000000E+00  0.00000000E+00  0.00000000E+00
  0.00000000E+00  0.00000000E+00  0.00000000E+00
  0.00000000E+00  0.00000000E+00  0.00000000E+00
  0.00000000E+00  0.00000000E+00  0.00000000E+00
  0.00000000E+00  0.00000000E+00  0.00000000E+00
  0.00000000E+00  0.00000000E+00  0.00000000E+00
  0.00000000E+00  0.00000000E+00  0.00000000E+00
  0.00000000E+00  0.00000000E+00  0.00000000E+00
  0.00000000E+00  0.00000000E+00  0.00000000E+00
  0.00000000E+00  0.00000000E+00  0.00000000E+00
  0.00000000E+00  0.00000000E+00  0.00000000E+00
  0.00000000E+00  0.00000000E+00  0.00000000E+00
  0.00000000E+00  0.00000000E+00  0.00000000E+00
  0.00000000E+00  0.00000000E+00  0.00000000E+00
  0.00000000E+00  0.00000000E+00  0.00000000E+00
  0.00000000E+00  0.00000000E+00  0.00000000E+00
  0.00000000E+00  0.00000000E+00  0.00000000E+00
  0.00000000E+00  0.00000000E+00  0.00000000E+00
  0.00000000E+00  0.00000000E+00  0.00000000E+00
  0.00000000E+00  0.00000000E+00  0.00000000E+00
  0.00000000E+00  0.00000000E+00  0.00000000E+00
  0.00000000E+00  0.00000000E+00  0.00000000E+00
  0.00000000E+00  0.00000000E+00  0.00000000E+00
  0.00000000E+00  0.00000000E+00  0.00000000E+00
  0.00000000E+00  0.00000000E+00  0.00000000E+00
  0.00000000E+00  0.00000000E+00  0.00000000E+00
  0.00000000E+00  0.00000000E+00  0.00000000E+00
  0.00000000E+00  0.00000000E+00  0.00000000E+00
  0.00000000E+00  0.00000000E+00  0.00000000E+00
  0.00000000E+00  0.00000000E+00  0.00000000E+00
  0.00000000E+00  0.00000000E+00  0.00000000E+00
  0.00000000E+00  0.00000000E+00  0.00000000E+00
  0.00000000E+00  0.00000000E+00  0.00000000E+00
  0.00000000E+00  0.00000000E+00  0.00000000E+00
  0.00000000E+00  0.00000000E+00  0.00000000E+00
  0.00000000E+00  0.00000000E+00  0.00000000E+00
  0.00000000E+00  0.00000000E+00  0.00000000E+00
  0.00000000E+00  0.00000000E+00  0.00000000E+00
  0.00000000E+00  0.00000000E+00  0.00000000E+00
  0.00000000E+00  0.00000000E+00  0.00000000E+00
  0.00000000E+00  0.00000000E+00  0.00000000E+00
  0.00000000E+00  0.00000000E+00  0.00000000E+00
  0.00000000E+00  0.00000000E+00  0.00000000E+00
  0.00000000E+00  0.00000000E+00  0.00000000E+00
  0.00000000E+00  0.00000000E+00  0.00000000E+00
  0.00000000E+00  0.00000000E+00  0.00000000E+00
  0.00000000E+00  0.00000000E+00  0.00000000E+00
  0.00000000E+00  0.00000000E+00  0.00000000E+00
  0.00000000E+00  0.00000000E+00  0.00000000E+00
  0.00000000E+00  0.00000000E+00  0.00000000E+00
  0.00000000E+00  0.00000000E+00  0.00000000E+00
  0.00000000E+00  0.00000000E+00  0.00000000E+00
  0.00000000E+00  0.00000000E+00  0.00000000E+00
  0.00000000E+00  0.00000000E+00  0.00000000E+00
  0.00000000E+00  0.00000000E+00  0.00000000E+00
  0.00000000E+00  0.00000000E+00  0.00000000E+00
  0.00000000E+00  0.00000000E+00  0.00000000E+00
  0.00000000E+00  0.00000000E+00  0.00000000E+00
  0.00000000E+00  0.00000000E+00  0.00000000E+00
  0.00000000E+00  0.00000000E+00  0.00000000E+00
  0.00000000E+00  0.00000000E+00  0.00000000E+00
  0.00000000E+00  0.00000000E+00  0.00000000E+00
  0.00000000E+00  0.00000000E+00  0.00000000E+00
  0.00000000E+00  0.00000000E+00  0.00000000E+00
  0.00000000E+00  0.00000000E+00  0.00000000E+00
  0.00000000E+00  0.00000000E+00  0.00000000E+00
  0.00000000E+00  0.00000000E+00  0.00000000E+00
  0.00000000E+00  0.00000000E+00  0.00000000E+00
  0.00000000E+00  0.00000000E+00  0.00000000E+00
  0.00000000E+00  0.00000000E+00  0.00000000E+00
  0.00000000E+00  0.00000000E+00  0.00000000E+00
  0.00000000E+00  0.00000000E+00  0.00000000E+00
  0.00000000E+00  0.00000000E+00  0.00000000E+00
  0.00000000E+00  0.00000000E+00  0.00000000E+00
  0.00000000E+00  0.00000000E+00  0.00000000E+00
  0.00000000E+00  0.00000000E+00  0.00000000E+00
  0.00000000E+00  0.00000000E+00  0.00000000E+00
  0.00000000E+00  0.00000000E+00  0.00000000E+00
  0.00000000E+00  0.00000000E+00  0.00000000E+00
  0.00000000E+00  0.00000000E+00  0.00000000E+00
  0.00000000E+00  0.00000000E+00  0.00000000E+00
  0.00000000E+00  0.00000000E+00  0.00000000E+00
  0.00000000E+00  0.00000000E+00  0.00000000E+00
  0.00000000E+00  0.00000000E+00  0.00000000E+00
  0.00000000E+00  0.00000000E+00  0.00000000E+00
  0.00000000E+00  0.00000000E+00  0.00000000E+00
  0.00000000E+00  0.00000000E+00  0.00000000E+00
  0.00000000E+00  0.00000000E+00  0.00000000E+00
  0.00000000E+00  0.00000000E+00  0.00000000E+00
  0.00000000E+00  0.00000000E+00  0.00000000E+00
  0.00000000E+00  0.00000000E+00  0.00000000E+00
  0.00000000E+00  0.00000000E+00  0.00000000E+00
  0.00000000E+00  0.00000000E+00  0.00000000E+00
  0.00000000E+00  0.00000000E+00  0.00000000E+00
  0.00000000E+00  0.00000000E+00  0.00000000E+00
  0.00000000E+00  0.00000000E+00  0.00000000E+00
  0.00000000E+00  0.00000000E+00  0.00000000E+00
  0.00000000E+00  0.00000000E+00  0.00000000E+00
  0.00000000E+00  0.00000000E+00  0.00000000E+00
  0.00000000E+00  0.00000000E+00  0.00000000E+00
  0.00000000E+00  0.00000000E+00  0.00000000E+00
  0.00000000E+00  0.00000000E+00  0.00000000E+00
  0.00000000E+00  0.00000000E+00  0.00000000E+00
  0.00000000E+00  0.00000000E+00  0.00000000E+00
  0.00000000E+00  0.00000000E+00  0.00000000E+00
  0.00000000E+00  0.00000000E+00  0.00000000E+00
  0.00000000E+00  0.00000000E+00  0.00000000E+00
