generated by phonopy                    
    1.009655898734050     
    40.3243032789280846    0.0000000000000000   -0.0000000000000000
     0.0000000000000000    5.1425249361287806    0.0000000000000009
    -0.0000000000000000   -2.5712624680643930    4.4535572342824725
   Co   Ru
    64    16
Direct
  0.0289357550451592  0.3333333333333286  0.1666666666666714
  0.0289357550451592  0.3333333333333286  0.6666666666666714
  0.0289357550451592  0.8333333333333286  0.1666666666666714
  0.0289357550451592  0.8333333333333286  0.6666666666666714
  0.0775967947215968  0.1666666666666714  0.3333333333333286
  0.0775967947215968  0.1666666666666714  0.8333333333333286
  0.0775967947215968  0.6666666666666714  0.3333333333333286
  0.0775967947215968  0.6666666666666714  0.8333333333333286
  0.1266082960662425  0.3333333333333286  0.1666666666666714
  0.1266082960662425  0.3333333333333286  0.6666666666666714
  0.1266082960662425  0.8333333333333286  0.1666666666666714
  0.1266082960662425  0.8333333333333286  0.6666666666666714
  0.1754929867112744  0.1666666666666714  0.3333333333333286
  0.1754929867112744  0.1666666666666714  0.8333333333333286
  0.1754929867112744  0.6666666666666714  0.3333333333333286
  0.1754929867112744  0.6666666666666714  0.8333333333333286
  0.2245099325238605  0.3333333333333286  0.1666666666666714
  0.2245099325238605  0.3333333333333286  0.6666666666666714
  0.2245099325238605  0.8333333333333286  0.1666666666666714
  0.2245099325238605  0.8333333333333286  0.6666666666666714
  0.2733935892563599  0.1666666666666714  0.3333333333333286
  0.2733935892563599  0.1666666666666714  0.8333333333333286
  0.2733935892563599  0.6666666666666714  0.3333333333333286
  0.2733935892563599  0.6666666666666714  0.8333333333333286
  0.3224031858982989  0.3333333333333286  0.1666666666666714
  0.3224031858982989  0.3333333333333286  0.6666666666666714
  0.3224031858982989  0.8333333333333286  0.1666666666666714
  0.3224031858982989  0.8333333333333286  0.6666666666666714
  0.3710623659631856  0.1666666666666714  0.3333333333333286
  0.3710623659631856  0.1666666666666714  0.8333333333333286
  0.3710623659631856  0.6666666666666714  0.3333333333333286
  0.3710623659631856  0.6666666666666714  0.8333333333333286
  0.5289357550451593  0.3333333333333286  0.1666666666666714
  0.5289357550451593  0.3333333333333286  0.6666666666666714
  0.5289357550451593  0.8333333333333286  0.1666666666666714
  0.5289357550451593  0.8333333333333286  0.6666666666666714
  0.5775967947215968  0.1666666666666714  0.3333333333333286
  0.5775967947215968  0.1666666666666714  0.8333333333333286
  0.5775967947215968  0.6666666666666714  0.3333333333333286
  0.5775967947215968  0.6666666666666714  0.8333333333333286
  0.6266082960662493  0.3333333333333286  0.1666666666666714
  0.6266082960662493  0.3333333333333286  0.6666666666666714
  0.6266082960662493  0.8333333333333286  0.1666666666666714
  0.6266082960662493  0.8333333333333286  0.6666666666666714
  0.6754929867112673  0.1666666666666714  0.3333333333333286
  0.6754929867112673  0.1666666666666714  0.8333333333333286
  0.6754929867112673  0.6666666666666714  0.3333333333333286
  0.6754929867112673  0.6666666666666714  0.8333333333333286
  0.7245099325238604  0.3333333333333286  0.1666666666666714
  0.7245099325238604  0.3333333333333286  0.6666666666666714
  0.7245099325238604  0.8333333333333286  0.1666666666666714
  0.7245099325238604  0.8333333333333286  0.6666666666666714
  0.7733935892563673  0.1666666666666714  0.3333333333333286
  0.7733935892563673  0.1666666666666714  0.8333333333333286
  0.7733935892563673  0.6666666666666714  0.3333333333333286
  0.7733935892563673  0.6666666666666714  0.8333333333333286
  0.8224031858982990  0.3333333333333286  0.1666666666666714
  0.8224031858982990  0.3333333333333286  0.6666666666666714
  0.8224031858982990  0.8333333333333286  0.1666666666666714
  0.8224031858982990  0.8333333333333286  0.6666666666666714
  0.8710623659631854  0.1666666666666714  0.3333333333333286
  0.8710623659631854  0.1666666666666714  0.8333333333333286
  0.8710623659631854  0.6666666666666714  0.3333333333333286
  0.8710623659631854  0.6666666666666714  0.8333333333333286
  0.4232208566522524  0.3333333333333286  0.1666666666666714
  0.4232208566522524  0.3333333333333286  0.6666666666666714
  0.4232208566522524  0.8333333333333286  0.1666666666666714
  0.4232208566522524  0.8333333333333286  0.6666666666666714
  0.4767762371617841  0.1666666666666714  0.3333333333333286
  0.4767762371617841  0.1666666666666714  0.8333333333333286
  0.4767762371617841  0.6666666666666714  0.3333333333333286
  0.4767762371617841  0.6666666666666714  0.8333333333333286
  0.9232208566522595  0.3333333333333286  0.1666666666666714
  0.9232208566522595  0.3333333333333286  0.6666666666666714
  0.9232208566522595  0.8333333333333286  0.1666666666666714
  0.9232208566522595  0.8333333333333286  0.6666666666666714
  0.9767762371617770  0.1666666666666714  0.3333333333333286
  0.9767762371617770  0.1666666666666714  0.8333333333333286
  0.9767762371617770  0.6666666666666714  0.3333333333333286
  0.9767762371617770  0.6666666666666714  0.8333333333333286
 
  0.00000000E+00  0.00000000E+00  0.00000000E+00
  0.00000000E+00  0.00000000E+00  0.00000000E+00
  0.00000000E+00  0.00000000E+00  0.00000000E+00
  0.00000000E+00  0.00000000E+00  0.00000000E+00
  0.00000000E+00  0.00000000E+00  0.00000000E+00
  0.00000000E+00  0.00000000E+00  0.00000000E+00
  0.00000000E+00  0.00000000E+00  0.00000000E+00
  0.00000000E+00  0.00000000E+00  0.00000000E+00
  0.00000000E+00  0.00000000E+00  0.00000000E+00
  0.00000000E+00  0.00000000E+00  0.00000000E+00
  0.00000000E+00  0.00000000E+00  0.00000000E+00
  0.00000000E+00  0.00000000E+00  0.00000000E+00
  0.00000000E+00  0.00000000E+00  0.00000000E+00
  0.00000000E+00  0.00000000E+00  0.00000000E+00
  0.00000000E+00  0.00000000E+00  0.00000000E+00
  0.00000000E+00  0.00000000E+00  0.00000000E+00
  0.00000000E+00  0.00000000E+00  0.00000000E+00
  0.00000000E+00  0.00000000E+00  0.00000000E+00
  0.00000000E+00  0.00000000E+00  0.00000000E+00
  0.00000000E+00  0.00000000E+00  0.00000000E+00
  0.00000000E+00  0.00000000E+00  0.00000000E+00
  0.00000000E+00  0.00000000E+00  0.00000000E+00
  0.00000000E+00  0.00000000E+00  0.00000000E+00
  0.00000000E+00  0.00000000E+00  0.00000000E+00
  0.00000000E+00  0.00000000E+00  0.00000000E+00
  0.00000000E+00  0.00000000E+00  0.00000000E+00
  0.00000000E+00  0.00000000E+00  0.00000000E+00
  0.00000000E+00  0.00000000E+00  0.00000000E+00
  0.00000000E+00  0.00000000E+00  0.00000000E+00
  0.00000000E+00  0.00000000E+00  0.00000000E+00
  0.00000000E+00  0.00000000E+00  0.00000000E+00
  0.00000000E+00  0.00000000E+00  0.00000000E+00
  0.00000000E+00  0.00000000E+00  0.00000000E+00
  0.00000000E+00  0.00000000E+00  0.00000000E+00
  0.00000000E+00  0.00000000E+00  0.00000000E+00
  0.00000000E+00  0.00000000E+00  0.00000000E+00
  0.00000000E+00  0.00000000E+00  0.00000000E+00
  0.00000000E+00  0.00000000E+00  0.00000000E+00
  0.00000000E+00  0.00000000E+00  0.00000000E+00
  0.00000000E+00  0.00000000E+00  0.00000000E+00
  0.00000000E+00  0.00000000E+00  0.00000000E+00
  0.00000000E+00  0.00000000E+00  0.00000000E+00
  0.00000000E+00  0.00000000E+00  0.00000000E+00
  0.00000000E+00  0.00000000E+00  0.00000000E+00
  0.00000000E+00  0.00000000E+00  0.00000000E+00
  0.00000000E+00  0.00000000E+00  0.00000000E+00
  0.00000000E+00  0.00000000E+00  0.00000000E+00
  0.00000000E+00  0.00000000E+00  0.00000000E+00
  0.00000000E+00  0.00000000E+00  0.00000000E+00
  0.00000000E+00  0.00000000E+00  0.00000000E+00
  0.00000000E+00  0.00000000E+00  0.00000000E+00
  0.00000000E+00  0.00000000E+00  0.00000000E+00
  0.00000000E+00  0.00000000E+00  0.00000000E+00
  0.00000000E+00  0.00000000E+00  0.00000000E+00
  0.00000000E+00  0.00000000E+00  0.00000000E+00
  0.00000000E+00  0.00000000E+00  0.00000000E+00
  0.00000000E+00  0.00000000E+00  0.00000000E+00
  0.00000000E+00  0.00000000E+00  0.00000000E+00
  0.00000000E+00  0.00000000E+00  0.00000000E+00
  0.00000000E+00  0.00000000E+00  0.00000000E+00
  0.00000000E+00  0.00000000E+00  0.00000000E+00
  0.00000000E+00  0.00000000E+00  0.00000000E+00
  0.00000000E+00  0.00000000E+00  0.00000000E+00
  0.00000000E+00  0.00000000E+00  0.00000000E+00
  0.00000000E+00  0.00000000E+00  0.00000000E+00
  0.00000000E+00  0.00000000E+00  0.00000000E+00
  0.00000000E+00  0.00000000E+00  0.00000000E+00
  0.00000000E+00  0.00000000E+00  0.00000000E+00
  0.00000000E+00  0.00000000E+00  0.00000000E+00
  0.00000000E+00  0.00000000E+00  0.00000000E+00
  0.00000000E+00  0.00000000E+00  0.00000000E+00
  0.00000000E+00  0.00000000E+00  0.00000000E+00
  0.00000000E+00  0.00000000E+00  0.00000000E+00
  0.00000000E+00  0.00000000E+00  0.00000000E+00
  0.00000000E+00  0.00000000E+00  0.00000000E+00
  0.00000000E+00  0.00000000E+00  0.00000000E+00
  0.00000000E+00  0.00000000E+00  0.00000000E+00
  0.00000000E+00  0.00000000E+00  0.00000000E+00
  0.00000000E+00  0.00000000E+00  0.00000000E+00
  0.00000000E+00  0.00000000E+00  0.00000000E+00
