generated by phonopy                    
    1.006655604652112     
    32.4038201974425135   -0.0000000000000000   -0.0000000000000000
    -0.0000000000000000    5.2250402610346773    0.0000000000000001
    -0.0000000000000000   -2.6125201305173382    4.5250176018525101
   Co   Ru
    40    24
Direct
  0.0367521254960934  0.3333333333333286  0.1666666666666714
  0.0367521254960934  0.3333333333333286  0.6666666666666714
  0.0367521254960934  0.8333333333333286  0.1666666666666714
  0.0367521254960934  0.8333333333333286  0.6666666666666714
  0.0962303192748664  0.1666666666666714  0.3333333333333286
  0.0962303192748664  0.1666666666666714  0.8333333333333286
  0.0962303192748664  0.6666666666666714  0.3333333333333286
  0.0962303192748664  0.6666666666666714  0.8333333333333286
  0.1562816719665605  0.3333333333333286  0.1666666666666714
  0.1562816719665605  0.3333333333333286  0.6666666666666714
  0.1562816719665605  0.8333333333333286  0.1666666666666714
  0.1562816719665605  0.8333333333333286  0.6666666666666714
  0.2163090309331253  0.1666666666666714  0.3333333333333286
  0.2163090309331253  0.1666666666666714  0.8333333333333286
  0.2163090309331253  0.6666666666666714  0.3333333333333286
  0.2163090309331253  0.6666666666666714  0.8333333333333286
  0.2757512592575111  0.3333333333333286  0.1666666666666714
  0.2757512592575111  0.3333333333333286  0.6666666666666714
  0.2757512592575111  0.8333333333333286  0.1666666666666714
  0.2757512592575111  0.8333333333333286  0.6666666666666714
  0.5367521254960934  0.3333333333333286  0.1666666666666714
  0.5367521254960934  0.3333333333333286  0.6666666666666714
  0.5367521254960934  0.8333333333333286  0.1666666666666714
  0.5367521254960934  0.8333333333333286  0.6666666666666714
  0.5962303192748664  0.1666666666666714  0.3333333333333286
  0.5962303192748664  0.1666666666666714  0.8333333333333286
  0.5962303192748664  0.6666666666666714  0.3333333333333286
  0.5962303192748664  0.6666666666666714  0.8333333333333286
  0.6562816719665605  0.3333333333333286  0.1666666666666714
  0.6562816719665605  0.3333333333333286  0.6666666666666714
  0.6562816719665605  0.8333333333333286  0.1666666666666714
  0.6562816719665605  0.8333333333333286  0.6666666666666714
  0.7163090309331253  0.1666666666666714  0.3333333333333286
  0.7163090309331253  0.1666666666666714  0.8333333333333286
  0.7163090309331253  0.6666666666666714  0.3333333333333286
  0.7163090309331253  0.6666666666666714  0.8333333333333286
  0.7757512592575040  0.3333333333333286  0.1666666666666714
  0.7757512592575040  0.3333333333333286  0.6666666666666714
  0.7757512592575040  0.8333333333333286  0.1666666666666714
  0.7757512592575040  0.8333333333333286  0.6666666666666714
  0.3400420890174658  0.1666666666666714  0.3333333333333286
  0.3400420890174658  0.1666666666666714  0.8333333333333286
  0.3400420890174658  0.6666666666666714  0.3333333333333286
  0.3400420890174658  0.6666666666666714  0.8333333333333286
  0.4062220769378158  0.3333333333333286  0.1666666666666714
  0.4062220769378158  0.3333333333333286  0.6666666666666714
  0.4062220769378158  0.8333333333333286  0.1666666666666714
  0.4062220769378158  0.8333333333333286  0.6666666666666714
  0.4724114271165618  0.1666666666666714  0.3333333333333286
  0.4724114271165618  0.1666666666666714  0.8333333333333286
  0.4724114271165618  0.6666666666666714  0.3333333333333286
  0.4724114271165618  0.6666666666666714  0.8333333333333286
  0.8400420890174658  0.1666666666666714  0.3333333333333286
  0.8400420890174658  0.1666666666666714  0.8333333333333286
  0.8400420890174658  0.6666666666666714  0.3333333333333286
  0.8400420890174658  0.6666666666666714  0.8333333333333286
  0.9062220769378158  0.3333333333333286  0.1666666666666714
  0.9062220769378158  0.3333333333333286  0.6666666666666714
  0.9062220769378158  0.8333333333333286  0.1666666666666714
  0.9062220769378158  0.8333333333333286  0.6666666666666714
  0.9724114271165618  0.1666666666666714  0.3333333333333286
  0.9724114271165618  0.1666666666666714  0.8333333333333286
  0.9724114271165618  0.6666666666666714  0.3333333333333286
  0.9724114271165618  0.6666666666666714  0.8333333333333286
 
  0.00000000E+00  0.00000000E+00  0.00000000E+00
  0.00000000E+00  0.00000000E+00  0.00000000E+00
  0.00000000E+00  0.00000000E+00  0.00000000E+00
  0.00000000E+00  0.00000000E+00  0.00000000E+00
  0.00000000E+00  0.00000000E+00  0.00000000E+00
  0.00000000E+00  0.00000000E+00  0.00000000E+00
  0.00000000E+00  0.00000000E+00  0.00000000E+00
  0.00000000E+00  0.00000000E+00  0.00000000E+00
  0.00000000E+00  0.00000000E+00  0.00000000E+00
  0.00000000E+00  0.00000000E+00  0.00000000E+00
  0.00000000E+00  0.00000000E+00  0.00000000E+00
  0.00000000E+00  0.00000000E+00  0.00000000E+00
  0.00000000E+00  0.00000000E+00  0.00000000E+00
  0.00000000E+00  0.00000000E+00  0.00000000E+00
  0.00000000E+00  0.00000000E+00  0.00000000E+00
  0.00000000E+00  0.00000000E+00  0.00000000E+00
  0.00000000E+00  0.00000000E+00  0.00000000E+00
  0.00000000E+00  0.00000000E+00  0.00000000E+00
  0.00000000E+00  0.00000000E+00  0.00000000E+00
  0.00000000E+00  0.00000000E+00  0.00000000E+00
  0.00000000E+00  0.00000000E+00  0.00000000E+00
  0.00000000E+00  0.00000000E+00  0.00000000E+00
  0.00000000E+00  0.00000000E+00  0.00000000E+00
  0.00000000E+00  0.00000000E+00  0.00000000E+00
  0.00000000E+00  0.00000000E+00  0.00000000E+00
  0.00000000E+00  0.00000000E+00  0.00000000E+00
  0.00000000E+00  0.00000000E+00  0.00000000E+00
  0.00000000E+00  0.00000000E+00  0.00000000E+00
  0.00000000E+00  0.00000000E+00  0.00000000E+00
  0.00000000E+00  0.00000000E+00  0.00000000E+00
  0.00000000E+00  0.00000000E+00  0.00000000E+00
  0.00000000E+00  0.00000000E+00  0.00000000E+00
  0.00000000E+00  0.00000000E+00  0.00000000E+00
  0.00000000E+00  0.00000000E+00  0.00000000E+00
  0.00000000E+00  0.00000000E+00  0.00000000E+00
  0.00000000E+00  0.00000000E+00  0.00000000E+00
  0.00000000E+00  0.00000000E+00  0.00000000E+00
  0.00000000E+00  0.00000000E+00  0.00000000E+00
  0.00000000E+00  0.00000000E+00  0.00000000E+00
  0.00000000E+00  0.00000000E+00  0.00000000E+00
  0.00000000E+00  0.00000000E+00  0.00000000E+00
  0.00000000E+00  0.00000000E+00  0.00000000E+00
  0.00000000E+00  0.00000000E+00  0.00000000E+00
  0.00000000E+00  0.00000000E+00  0.00000000E+00
  0.00000000E+00  0.00000000E+00  0.00000000E+00
  0.00000000E+00  0.00000000E+00  0.00000000E+00
  0.00000000E+00  0.00000000E+00  0.00000000E+00
  0.00000000E+00  0.00000000E+00  0.00000000E+00
  0.00000000E+00  0.00000000E+00  0.00000000E+00
  0.00000000E+00  0.00000000E+00  0.00000000E+00
  0.00000000E+00  0.00000000E+00  0.00000000E+00
  0.00000000E+00  0.00000000E+00  0.00000000E+00
  0.00000000E+00  0.00000000E+00  0.00000000E+00
  0.00000000E+00  0.00000000E+00  0.00000000E+00
  0.00000000E+00  0.00000000E+00  0.00000000E+00
  0.00000000E+00  0.00000000E+00  0.00000000E+00
  0.00000000E+00  0.00000000E+00  0.00000000E+00
  0.00000000E+00  0.00000000E+00  0.00000000E+00
  0.00000000E+00  0.00000000E+00  0.00000000E+00
  0.00000000E+00  0.00000000E+00  0.00000000E+00
  0.00000000E+00  0.00000000E+00  0.00000000E+00
  0.00000000E+00  0.00000000E+00  0.00000000E+00
  0.00000000E+00  0.00000000E+00  0.00000000E+00
  0.00000000E+00  0.00000000E+00  0.00000000E+00
