generated by phonopy                    
   1.00328883835111     
    32.3810737081474258    0.0000000000000000   -0.0000000000000000
     0.0000000000000000    5.2287737431944699    0.0000000000000001
    -0.0000000000000000   -2.6143868715972349    4.5282508922474713
   Co   Ru
    40    24
Direct
  0.0366828406783569  0.3333333333333286  0.1666666666666714
  0.0366828406783569  0.3333333333333286  0.6666666666666714
  0.0366828406783569  0.8333333333333286  0.1666666666666714
  0.0366828406783569  0.8333333333333286  0.6666666666666714
  0.0963166502014790  0.1666666666666714  0.3333333333333286
  0.0963166502014790  0.1666666666666714  0.8333333333333286
  0.0963166502014790  0.6666666666666714  0.3333333333333286
  0.0963166502014790  0.6666666666666714  0.8333333333333286
  0.1562512140713687  0.3333333333333286  0.1666666666666714
  0.1562512140713687  0.3333333333333286  0.6666666666666714
  0.1562512140713687  0.8333333333333286  0.1666666666666714
  0.1562512140713687  0.8333333333333286  0.6666666666666714
  0.2161849185522867  0.1666666666666714  0.3333333333333286
  0.2161849185522867  0.1666666666666714  0.8333333333333286
  0.2161849185522867  0.6666666666666714  0.3333333333333286
  0.2161849185522867  0.6666666666666714  0.8333333333333286
  0.2758170938375961  0.3333333333333286  0.1666666666666714
  0.2758170938375961  0.3333333333333286  0.6666666666666714
  0.2758170938375961  0.8333333333333286  0.1666666666666714
  0.2758170938375961  0.8333333333333286  0.6666666666666714
  0.5366828406783567  0.3333333333333286  0.1666666666666714
  0.5366828406783567  0.3333333333333286  0.6666666666666714
  0.5366828406783567  0.8333333333333286  0.1666666666666714
  0.5366828406783567  0.8333333333333286  0.6666666666666714
  0.5963166502014787  0.1666666666666714  0.3333333333333286
  0.5963166502014787  0.1666666666666714  0.8333333333333286
  0.5963166502014787  0.6666666666666714  0.3333333333333286
  0.5963166502014787  0.6666666666666714  0.8333333333333286
  0.6562512140713690  0.3333333333333286  0.1666666666666714
  0.6562512140713690  0.3333333333333286  0.6666666666666714
  0.6562512140713690  0.8333333333333286  0.1666666666666714
  0.6562512140713690  0.8333333333333286  0.6666666666666714
  0.7161849185522866  0.1666666666666714  0.3333333333333286
  0.7161849185522866  0.1666666666666714  0.8333333333333286
  0.7161849185522866  0.6666666666666714  0.3333333333333286
  0.7161849185522866  0.6666666666666714  0.8333333333333286
  0.7758170938375888  0.3333333333333286  0.1666666666666714
  0.7758170938375888  0.3333333333333286  0.6666666666666714
  0.7758170938375888  0.8333333333333286  0.1666666666666714
  0.7758170938375888  0.8333333333333286  0.6666666666666714
  0.3398997428422728  0.1666666666666714  0.3333333333333286
  0.3398997428422728  0.1666666666666714  0.8333333333333286
  0.3398997428422728  0.6666666666666714  0.3333333333333286
  0.3398997428422728  0.6666666666666714  0.8333333333333286
  0.4062489825084888  0.3333333333333286  0.1666666666666714
  0.4062489825084888  0.3333333333333286  0.6666666666666714
  0.4062489825084888  0.8333333333333286  0.1666666666666714
  0.4062489825084888  0.8333333333333286  0.6666666666666714
  0.4725985573081503  0.1666666666666714  0.3333333333333286
  0.4725985573081503  0.1666666666666714  0.8333333333333286
  0.4725985573081503  0.6666666666666714  0.3333333333333286
  0.4725985573081503  0.6666666666666714  0.8333333333333286
  0.8398997428422726  0.1666666666666714  0.3333333333333286
  0.8398997428422726  0.1666666666666714  0.8333333333333286
  0.8398997428422726  0.6666666666666714  0.3333333333333286
  0.8398997428422726  0.6666666666666714  0.8333333333333286
  0.9062489825084893  0.3333333333333286  0.1666666666666714
  0.9062489825084893  0.3333333333333286  0.6666666666666714
  0.9062489825084893  0.8333333333333286  0.1666666666666714
  0.9062489825084893  0.8333333333333286  0.6666666666666714
  0.9725985573081511  0.1666666666666714  0.3333333333333286
  0.9725985573081511  0.1666666666666714  0.8333333333333286
  0.9725985573081511  0.6666666666666714  0.3333333333333286
  0.9725985573081511  0.6666666666666714  0.8333333333333286
 
  0.00000000E+00  0.00000000E+00  0.00000000E+00
  0.00000000E+00  0.00000000E+00  0.00000000E+00
  0.00000000E+00  0.00000000E+00  0.00000000E+00
  0.00000000E+00  0.00000000E+00  0.00000000E+00
  0.00000000E+00  0.00000000E+00  0.00000000E+00
  0.00000000E+00  0.00000000E+00  0.00000000E+00
  0.00000000E+00  0.00000000E+00  0.00000000E+00
  0.00000000E+00  0.00000000E+00  0.00000000E+00
  0.00000000E+00  0.00000000E+00  0.00000000E+00
  0.00000000E+00  0.00000000E+00  0.00000000E+00
  0.00000000E+00  0.00000000E+00  0.00000000E+00
  0.00000000E+00  0.00000000E+00  0.00000000E+00
  0.00000000E+00  0.00000000E+00  0.00000000E+00
  0.00000000E+00  0.00000000E+00  0.00000000E+00
  0.00000000E+00  0.00000000E+00  0.00000000E+00
  0.00000000E+00  0.00000000E+00  0.00000000E+00
  0.00000000E+00  0.00000000E+00  0.00000000E+00
  0.00000000E+00  0.00000000E+00  0.00000000E+00
  0.00000000E+00  0.00000000E+00  0.00000000E+00
  0.00000000E+00  0.00000000E+00  0.00000000E+00
  0.00000000E+00  0.00000000E+00  0.00000000E+00
  0.00000000E+00  0.00000000E+00  0.00000000E+00
  0.00000000E+00  0.00000000E+00  0.00000000E+00
  0.00000000E+00  0.00000000E+00  0.00000000E+00
  0.00000000E+00  0.00000000E+00  0.00000000E+00
  0.00000000E+00  0.00000000E+00  0.00000000E+00
  0.00000000E+00  0.00000000E+00  0.00000000E+00
  0.00000000E+00  0.00000000E+00  0.00000000E+00
  0.00000000E+00  0.00000000E+00  0.00000000E+00
  0.00000000E+00  0.00000000E+00  0.00000000E+00
  0.00000000E+00  0.00000000E+00  0.00000000E+00
  0.00000000E+00  0.00000000E+00  0.00000000E+00
  0.00000000E+00  0.00000000E+00  0.00000000E+00
  0.00000000E+00  0.00000000E+00  0.00000000E+00
  0.00000000E+00  0.00000000E+00  0.00000000E+00
  0.00000000E+00  0.00000000E+00  0.00000000E+00
  0.00000000E+00  0.00000000E+00  0.00000000E+00
  0.00000000E+00  0.00000000E+00  0.00000000E+00
  0.00000000E+00  0.00000000E+00  0.00000000E+00
  0.00000000E+00  0.00000000E+00  0.00000000E+00
  0.00000000E+00  0.00000000E+00  0.00000000E+00
  0.00000000E+00  0.00000000E+00  0.00000000E+00
  0.00000000E+00  0.00000000E+00  0.00000000E+00
  0.00000000E+00  0.00000000E+00  0.00000000E+00
  0.00000000E+00  0.00000000E+00  0.00000000E+00
  0.00000000E+00  0.00000000E+00  0.00000000E+00
  0.00000000E+00  0.00000000E+00  0.00000000E+00
  0.00000000E+00  0.00000000E+00  0.00000000E+00
  0.00000000E+00  0.00000000E+00  0.00000000E+00
  0.00000000E+00  0.00000000E+00  0.00000000E+00
  0.00000000E+00  0.00000000E+00  0.00000000E+00
  0.00000000E+00  0.00000000E+00  0.00000000E+00
  0.00000000E+00  0.00000000E+00  0.00000000E+00
  0.00000000E+00  0.00000000E+00  0.00000000E+00
  0.00000000E+00  0.00000000E+00  0.00000000E+00
  0.00000000E+00  0.00000000E+00  0.00000000E+00
  0.00000000E+00  0.00000000E+00  0.00000000E+00
  0.00000000E+00  0.00000000E+00  0.00000000E+00
  0.00000000E+00  0.00000000E+00  0.00000000E+00
  0.00000000E+00  0.00000000E+00  0.00000000E+00
  0.00000000E+00  0.00000000E+00  0.00000000E+00
  0.00000000E+00  0.00000000E+00  0.00000000E+00
  0.00000000E+00  0.00000000E+00  0.00000000E+00
  0.00000000E+00  0.00000000E+00  0.00000000E+00
