generated by phonopy                    
    1.000000000000000     
    48.4061269100713076    0.0000000000000000   -0.0000000000000000
     0.0000000000000000    5.0606375075464856   -0.0000000000000000
    -0.0000000000000000   -2.5303187537732428    4.3826406408796208
   Co   Ru
    88     8
Direct
  0.0228459109566143  0.3333333333333286  0.1666666666666714
  0.0228459109566143  0.3333333333333286  0.6666666666666714
  0.0228459109566143  0.8333333333333286  0.1666666666666714
  0.0228459109566143  0.8333333333333286  0.6666666666666714
  0.0639050725436824  0.1666666666666714  0.3333333333333286
  0.0639050725436824  0.1666666666666714  0.8333333333333286
  0.0639050725436824  0.6666666666666714  0.3333333333333286
  0.0639050725436824  0.6666666666666714  0.8333333333333286
  0.1051809104463384  0.3333333333333286  0.1666666666666714
  0.1051809104463384  0.3333333333333286  0.6666666666666714
  0.1051809104463384  0.8333333333333286  0.1666666666666714
  0.1051809104463384  0.8333333333333286  0.6666666666666714
  0.1465004857605640  0.1666666666666714  0.3333333333333286
  0.1465004857605640  0.1666666666666714  0.8333333333333286
  0.1465004857605640  0.6666666666666714  0.3333333333333286
  0.1465004857605640  0.6666666666666714  0.8333333333333286
  0.1878339508970811  0.3333333333333286  0.1666666666666714
  0.1878339508970811  0.3333333333333286  0.6666666666666714
  0.1878339508970811  0.8333333333333286  0.1666666666666714
  0.1878339508970811  0.8333333333333286  0.6666666666666714
  0.2291666666666643  0.1666666666666714  0.3333333333333286
  0.2291666666666643  0.1666666666666714  0.8333333333333286
  0.2291666666666643  0.6666666666666714  0.3333333333333286
  0.2291666666666643  0.6666666666666714  0.8333333333333286
  0.2704993824362547  0.3333333333333286  0.1666666666666714
  0.2704993824362547  0.3333333333333286  0.6666666666666714
  0.2704993824362547  0.8333333333333286  0.1666666666666714
  0.2704993824362547  0.8333333333333286  0.6666666666666714
  0.3118328475727719  0.1666666666666714  0.3333333333333286
  0.3118328475727719  0.1666666666666714  0.8333333333333286
  0.3118328475727719  0.6666666666666714  0.3333333333333286
  0.3118328475727719  0.6666666666666714  0.8333333333333286
  0.3531524228869899  0.3333333333333286  0.1666666666666714
  0.3531524228869899  0.3333333333333286  0.6666666666666714
  0.3531524228869899  0.8333333333333286  0.1666666666666714
  0.3531524228869899  0.8333333333333286  0.6666666666666714
  0.3944282607896534  0.1666666666666714  0.3333333333333286
  0.3944282607896534  0.1666666666666714  0.8333333333333286
  0.3944282607896534  0.6666666666666714  0.3333333333333286
  0.3944282607896534  0.6666666666666714  0.8333333333333286
  0.4354874223767215  0.3333333333333286  0.1666666666666714
  0.4354874223767215  0.3333333333333286  0.6666666666666714
  0.4354874223767215  0.8333333333333286  0.1666666666666714
  0.4354874223767215  0.8333333333333286  0.6666666666666714
  0.5228459109566143  0.3333333333333286  0.1666666666666714
  0.5228459109566143  0.3333333333333286  0.6666666666666714
  0.5228459109566143  0.8333333333333286  0.1666666666666714
  0.5228459109566143  0.8333333333333286  0.6666666666666714
  0.5639050725436826  0.1666666666666714  0.3333333333333286
  0.5639050725436826  0.1666666666666714  0.8333333333333286
  0.5639050725436826  0.6666666666666714  0.3333333333333286
  0.5639050725436826  0.6666666666666714  0.8333333333333286
  0.6051809104463387  0.3333333333333286  0.1666666666666714
  0.6051809104463387  0.3333333333333286  0.6666666666666714
  0.6051809104463387  0.8333333333333286  0.1666666666666714
  0.6051809104463387  0.8333333333333286  0.6666666666666714
  0.6465004857605641  0.1666666666666714  0.3333333333333286
  0.6465004857605641  0.1666666666666714  0.8333333333333286
  0.6465004857605641  0.6666666666666714  0.3333333333333286
  0.6465004857605641  0.6666666666666714  0.8333333333333286
  0.6878339508970811  0.3333333333333286  0.1666666666666714
  0.6878339508970811  0.3333333333333286  0.6666666666666714
  0.6878339508970811  0.8333333333333286  0.1666666666666714
  0.6878339508970811  0.8333333333333286  0.6666666666666714
  0.7291666666666643  0.1666666666666714  0.3333333333333286
  0.7291666666666643  0.1666666666666714  0.8333333333333286
  0.7291666666666643  0.6666666666666714  0.3333333333333286
  0.7291666666666643  0.6666666666666714  0.8333333333333286
  0.7704993824362546  0.3333333333333286  0.1666666666666714
  0.7704993824362546  0.3333333333333286  0.6666666666666714
  0.7704993824362546  0.8333333333333286  0.1666666666666714
  0.7704993824362546  0.8333333333333286  0.6666666666666714
  0.8118328475727716  0.1666666666666714  0.3333333333333286
  0.8118328475727716  0.1666666666666714  0.8333333333333286
  0.8118328475727716  0.6666666666666714  0.3333333333333286
  0.8118328475727716  0.6666666666666714  0.8333333333333286
  0.8531524228869899  0.3333333333333286  0.1666666666666714
  0.8531524228869899  0.3333333333333286  0.6666666666666714
  0.8531524228869899  0.8333333333333286  0.1666666666666714
  0.8531524228869899  0.8333333333333286  0.6666666666666714
  0.8944282607896531  0.1666666666666714  0.3333333333333286
  0.8944282607896531  0.1666666666666714  0.8333333333333286
  0.8944282607896531  0.6666666666666714  0.3333333333333286
  0.8944282607896531  0.6666666666666714  0.8333333333333286
  0.9354874223767214  0.3333333333333286  0.1666666666666714
  0.9354874223767214  0.3333333333333286  0.6666666666666714
  0.9354874223767214  0.8333333333333286  0.1666666666666714
  0.9354874223767214  0.8333333333333286  0.6666666666666714
  0.4791666666666643  0.1666666666666714  0.3333333333333286
  0.4791666666666643  0.1666666666666714  0.8333333333333286
  0.4791666666666643  0.6666666666666714  0.3333333333333286
  0.4791666666666643  0.6666666666666714  0.8333333333333286
  0.9791666666666643  0.1666666666666714  0.3333333333333286
  0.9791666666666643  0.1666666666666714  0.8333333333333286
  0.9791666666666643  0.6666666666666714  0.3333333333333286
  0.9791666666666643  0.6666666666666714  0.8333333333333286
 
  0.00000000E+00  0.00000000E+00  0.00000000E+00
  0.00000000E+00  0.00000000E+00  0.00000000E+00
  0.00000000E+00  0.00000000E+00  0.00000000E+00
  0.00000000E+00  0.00000000E+00  0.00000000E+00
  0.00000000E+00  0.00000000E+00  0.00000000E+00
  0.00000000E+00  0.00000000E+00  0.00000000E+00
  0.00000000E+00  0.00000000E+00  0.00000000E+00
  0.00000000E+00  0.00000000E+00  0.00000000E+00
  0.00000000E+00  0.00000000E+00  0.00000000E+00
  0.00000000E+00  0.00000000E+00  0.00000000E+00
  0.00000000E+00  0.00000000E+00  0.00000000E+00
  0.00000000E+00  0.00000000E+00  0.00000000E+00
  0.00000000E+00  0.00000000E+00  0.00000000E+00
  0.00000000E+00  0.00000000E+00  0.00000000E+00
  0.00000000E+00  0.00000000E+00  0.00000000E+00
  0.00000000E+00  0.00000000E+00  0.00000000E+00
  0.00000000E+00  0.00000000E+00  0.00000000E+00
  0.00000000E+00  0.00000000E+00  0.00000000E+00
  0.00000000E+00  0.00000000E+00  0.00000000E+00
  0.00000000E+00  0.00000000E+00  0.00000000E+00
  0.00000000E+00  0.00000000E+00  0.00000000E+00
  0.00000000E+00  0.00000000E+00  0.00000000E+00
  0.00000000E+00  0.00000000E+00  0.00000000E+00
  0.00000000E+00  0.00000000E+00  0.00000000E+00
  0.00000000E+00  0.00000000E+00  0.00000000E+00
  0.00000000E+00  0.00000000E+00  0.00000000E+00
  0.00000000E+00  0.00000000E+00  0.00000000E+00
  0.00000000E+00  0.00000000E+00  0.00000000E+00
  0.00000000E+00  0.00000000E+00  0.00000000E+00
  0.00000000E+00  0.00000000E+00  0.00000000E+00
  0.00000000E+00  0.00000000E+00  0.00000000E+00
  0.00000000E+00  0.00000000E+00  0.00000000E+00
  0.00000000E+00  0.00000000E+00  0.00000000E+00
  0.00000000E+00  0.00000000E+00  0.00000000E+00
  0.00000000E+00  0.00000000E+00  0.00000000E+00
  0.00000000E+00  0.00000000E+00  0.00000000E+00
  0.00000000E+00  0.00000000E+00  0.00000000E+00
  0.00000000E+00  0.00000000E+00  0.00000000E+00
  0.00000000E+00  0.00000000E+00  0.00000000E+00
  0.00000000E+00  0.00000000E+00  0.00000000E+00
  0.00000000E+00  0.00000000E+00  0.00000000E+00
  0.00000000E+00  0.00000000E+00  0.00000000E+00
  0.00000000E+00  0.00000000E+00  0.00000000E+00
  0.00000000E+00  0.00000000E+00  0.00000000E+00
  0.00000000E+00  0.00000000E+00  0.00000000E+00
  0.00000000E+00  0.00000000E+00  0.00000000E+00
  0.00000000E+00  0.00000000E+00  0.00000000E+00
  0.00000000E+00  0.00000000E+00  0.00000000E+00
  0.00000000E+00  0.00000000E+00  0.00000000E+00
  0.00000000E+00  0.00000000E+00  0.00000000E+00
  0.00000000E+00  0.00000000E+00  0.00000000E+00
  0.00000000E+00  0.00000000E+00  0.00000000E+00
  0.00000000E+00  0.00000000E+00  0.00000000E+00
  0.00000000E+00  0.00000000E+00  0.00000000E+00
  0.00000000E+00  0.00000000E+00  0.00000000E+00
  0.00000000E+00  0.00000000E+00  0.00000000E+00
  0.00000000E+00  0.00000000E+00  0.00000000E+00
  0.00000000E+00  0.00000000E+00  0.00000000E+00
  0.00000000E+00  0.00000000E+00  0.00000000E+00
  0.00000000E+00  0.00000000E+00  0.00000000E+00
  0.00000000E+00  0.00000000E+00  0.00000000E+00
  0.00000000E+00  0.00000000E+00  0.00000000E+00
  0.00000000E+00  0.00000000E+00  0.00000000E+00
  0.00000000E+00  0.00000000E+00  0.00000000E+00
  0.00000000E+00  0.00000000E+00  0.00000000E+00
  0.00000000E+00  0.00000000E+00  0.00000000E+00
  0.00000000E+00  0.00000000E+00  0.00000000E+00
  0.00000000E+00  0.00000000E+00  0.00000000E+00
  0.00000000E+00  0.00000000E+00  0.00000000E+00
  0.00000000E+00  0.00000000E+00  0.00000000E+00
  0.00000000E+00  0.00000000E+00  0.00000000E+00
  0.00000000E+00  0.00000000E+00  0.00000000E+00
  0.00000000E+00  0.00000000E+00  0.00000000E+00
  0.00000000E+00  0.00000000E+00  0.00000000E+00
  0.00000000E+00  0.00000000E+00  0.00000000E+00
  0.00000000E+00  0.00000000E+00  0.00000000E+00
  0.00000000E+00  0.00000000E+00  0.00000000E+00
  0.00000000E+00  0.00000000E+00  0.00000000E+00
  0.00000000E+00  0.00000000E+00  0.00000000E+00
  0.00000000E+00  0.00000000E+00  0.00000000E+00
  0.00000000E+00  0.00000000E+00  0.00000000E+00
  0.00000000E+00  0.00000000E+00  0.00000000E+00
  0.00000000E+00  0.00000000E+00  0.00000000E+00
  0.00000000E+00  0.00000000E+00  0.00000000E+00
  0.00000000E+00  0.00000000E+00  0.00000000E+00
  0.00000000E+00  0.00000000E+00  0.00000000E+00
  0.00000000E+00  0.00000000E+00  0.00000000E+00
  0.00000000E+00  0.00000000E+00  0.00000000E+00
  0.00000000E+00  0.00000000E+00  0.00000000E+00
  0.00000000E+00  0.00000000E+00  0.00000000E+00
  0.00000000E+00  0.00000000E+00  0.00000000E+00
  0.00000000E+00  0.00000000E+00  0.00000000E+00
  0.00000000E+00  0.00000000E+00  0.00000000E+00
  0.00000000E+00  0.00000000E+00  0.00000000E+00
  0.00000000E+00  0.00000000E+00  0.00000000E+00
  0.00000000E+00  0.00000000E+00  0.00000000E+00
