generated by phonopy                    
   0.9932883883792684     
    48.4006601172881830    0.0000000000000000    0.0000000000000000
     0.0000000000000000    5.0609232957504773    0.0000000000000000
    -0.0000000000000000   -2.5304616478752386    4.3828881407243818
   Co   Ru
    88     8
Direct
  0.0229247241070696  0.3333333333333286  0.1666666666666714
  0.0229247241070696  0.3333333333333286  0.6666666666666714
  0.0229247241070696  0.8333333333333286  0.1666666666666714
  0.0229247241070696  0.8333333333333286  0.6666666666666714
  0.0639770018604009  0.1666666666666714  0.3333333333333286
  0.0639770018604009  0.1666666666666714  0.8333333333333286
  0.0639770018604009  0.6666666666666714  0.3333333333333286
  0.0639770018604009  0.6666666666666714  0.8333333333333286
  0.1052373523107070  0.3333333333333286  0.1666666666666714
  0.1052373523107070  0.3333333333333286  0.6666666666666714
  0.1052373523107070  0.8333333333333286  0.1666666666666714
  0.1052373523107070  0.8333333333333286  0.6666666666666714
  0.1465503195900646  0.1666666666666714  0.3333333333333286
  0.1465503195900646  0.1666666666666714  0.8333333333333286
  0.1465503195900646  0.6666666666666714  0.3333333333333286
  0.1465503195900646  0.6666666666666714  0.8333333333333286
  0.1878618830413862  0.3333333333333286  0.1666666666666714
  0.1878618830413862  0.3333333333333286  0.6666666666666714
  0.1878618830413862  0.8333333333333286  0.1666666666666714
  0.1878618830413862  0.8333333333333286  0.6666666666666714
  0.2291666666666643  0.1666666666666714  0.3333333333333286
  0.2291666666666643  0.1666666666666714  0.8333333333333286
  0.2291666666666643  0.6666666666666714  0.3333333333333286
  0.2291666666666643  0.6666666666666714  0.8333333333333286
  0.2704714502919495  0.3333333333333286  0.1666666666666714
  0.2704714502919495  0.3333333333333286  0.6666666666666714
  0.2704714502919495  0.8333333333333286  0.1666666666666714
  0.2704714502919495  0.8333333333333286  0.6666666666666714
  0.3117830137432712  0.1666666666666714  0.3333333333333286
  0.3117830137432712  0.1666666666666714  0.8333333333333286
  0.3117830137432712  0.6666666666666714  0.3333333333333286
  0.3117830137432712  0.6666666666666714  0.8333333333333286
  0.3530959810226216  0.3333333333333286  0.1666666666666714
  0.3530959810226216  0.3333333333333286  0.6666666666666714
  0.3530959810226216  0.8333333333333286  0.1666666666666714
  0.3530959810226216  0.8333333333333286  0.6666666666666714
  0.3943563314729348  0.1666666666666714  0.3333333333333286
  0.3943563314729348  0.1666666666666714  0.8333333333333286
  0.3943563314729348  0.6666666666666714  0.3333333333333286
  0.3943563314729348  0.6666666666666714  0.8333333333333286
  0.4354086092262732  0.3333333333333286  0.1666666666666714
  0.4354086092262732  0.3333333333333286  0.6666666666666714
  0.4354086092262732  0.8333333333333286  0.1666666666666714
  0.4354086092262732  0.8333333333333286  0.6666666666666714
  0.5229247241070696  0.3333333333333286  0.1666666666666714
  0.5229247241070696  0.3333333333333286  0.6666666666666714
  0.5229247241070696  0.8333333333333286  0.1666666666666714
  0.5229247241070696  0.8333333333333286  0.6666666666666714
  0.5639770018604008  0.1666666666666714  0.3333333333333286
  0.5639770018604008  0.1666666666666714  0.8333333333333286
  0.5639770018604008  0.6666666666666714  0.3333333333333286
  0.5639770018604008  0.6666666666666714  0.8333333333333286
  0.6052373523107071  0.3333333333333286  0.1666666666666714
  0.6052373523107071  0.3333333333333286  0.6666666666666714
  0.6052373523107071  0.8333333333333286  0.1666666666666714
  0.6052373523107071  0.8333333333333286  0.6666666666666714
  0.6465503195900647  0.1666666666666714  0.3333333333333286
  0.6465503195900647  0.1666666666666714  0.8333333333333286
  0.6465503195900647  0.6666666666666714  0.3333333333333286
  0.6465503195900647  0.6666666666666714  0.8333333333333286
  0.6878618830413863  0.3333333333333286  0.1666666666666714
  0.6878618830413863  0.3333333333333286  0.6666666666666714
  0.6878618830413863  0.8333333333333286  0.1666666666666714
  0.6878618830413863  0.8333333333333286  0.6666666666666714
  0.7291666666666643  0.1666666666666714  0.3333333333333286
  0.7291666666666643  0.1666666666666714  0.8333333333333286
  0.7291666666666643  0.6666666666666714  0.3333333333333286
  0.7291666666666643  0.6666666666666714  0.8333333333333286
  0.7704714502919494  0.3333333333333286  0.1666666666666714
  0.7704714502919494  0.3333333333333286  0.6666666666666714
  0.7704714502919494  0.8333333333333286  0.1666666666666714
  0.7704714502919494  0.8333333333333286  0.6666666666666714
  0.8117830137432710  0.1666666666666714  0.3333333333333286
  0.8117830137432710  0.1666666666666714  0.8333333333333286
  0.8117830137432710  0.6666666666666714  0.3333333333333286
  0.8117830137432710  0.6666666666666714  0.8333333333333286
  0.8530959810226215  0.3333333333333286  0.1666666666666714
  0.8530959810226215  0.3333333333333286  0.6666666666666714
  0.8530959810226215  0.8333333333333286  0.1666666666666714
  0.8530959810226215  0.8333333333333286  0.6666666666666714
  0.8943563314729349  0.1666666666666714  0.3333333333333286
  0.8943563314729349  0.1666666666666714  0.8333333333333286
  0.8943563314729349  0.6666666666666714  0.3333333333333286
  0.8943563314729349  0.6666666666666714  0.8333333333333286
  0.9354086092262661  0.3333333333333286  0.1666666666666714
  0.9354086092262661  0.3333333333333286  0.6666666666666714
  0.9354086092262661  0.8333333333333286  0.1666666666666714
  0.9354086092262661  0.8333333333333286  0.6666666666666714
  0.4791666666666643  0.1666666666666714  0.3333333333333286
  0.4791666666666643  0.1666666666666714  0.8333333333333286
  0.4791666666666643  0.6666666666666714  0.3333333333333286
  0.4791666666666643  0.6666666666666714  0.8333333333333286
  0.9791666666666643  0.1666666666666714  0.3333333333333286
  0.9791666666666643  0.1666666666666714  0.8333333333333286
  0.9791666666666643  0.6666666666666714  0.3333333333333286
  0.9791666666666643  0.6666666666666714  0.8333333333333286
 
  0.00000000E+00  0.00000000E+00  0.00000000E+00
  0.00000000E+00  0.00000000E+00  0.00000000E+00
  0.00000000E+00  0.00000000E+00  0.00000000E+00
  0.00000000E+00  0.00000000E+00  0.00000000E+00
  0.00000000E+00  0.00000000E+00  0.00000000E+00
  0.00000000E+00  0.00000000E+00  0.00000000E+00
  0.00000000E+00  0.00000000E+00  0.00000000E+00
  0.00000000E+00  0.00000000E+00  0.00000000E+00
  0.00000000E+00  0.00000000E+00  0.00000000E+00
  0.00000000E+00  0.00000000E+00  0.00000000E+00
  0.00000000E+00  0.00000000E+00  0.00000000E+00
  0.00000000E+00  0.00000000E+00  0.00000000E+00
  0.00000000E+00  0.00000000E+00  0.00000000E+00
  0.00000000E+00  0.00000000E+00  0.00000000E+00
  0.00000000E+00  0.00000000E+00  0.00000000E+00
  0.00000000E+00  0.00000000E+00  0.00000000E+00
  0.00000000E+00  0.00000000E+00  0.00000000E+00
  0.00000000E+00  0.00000000E+00  0.00000000E+00
  0.00000000E+00  0.00000000E+00  0.00000000E+00
  0.00000000E+00  0.00000000E+00  0.00000000E+00
  0.00000000E+00  0.00000000E+00  0.00000000E+00
  0.00000000E+00  0.00000000E+00  0.00000000E+00
  0.00000000E+00  0.00000000E+00  0.00000000E+00
  0.00000000E+00  0.00000000E+00  0.00000000E+00
  0.00000000E+00  0.00000000E+00  0.00000000E+00
  0.00000000E+00  0.00000000E+00  0.00000000E+00
  0.00000000E+00  0.00000000E+00  0.00000000E+00
  0.00000000E+00  0.00000000E+00  0.00000000E+00
  0.00000000E+00  0.00000000E+00  0.00000000E+00
  0.00000000E+00  0.00000000E+00  0.00000000E+00
  0.00000000E+00  0.00000000E+00  0.00000000E+00
  0.00000000E+00  0.00000000E+00  0.00000000E+00
  0.00000000E+00  0.00000000E+00  0.00000000E+00
  0.00000000E+00  0.00000000E+00  0.00000000E+00
  0.00000000E+00  0.00000000E+00  0.00000000E+00
  0.00000000E+00  0.00000000E+00  0.00000000E+00
  0.00000000E+00  0.00000000E+00  0.00000000E+00
  0.00000000E+00  0.00000000E+00  0.00000000E+00
  0.00000000E+00  0.00000000E+00  0.00000000E+00
  0.00000000E+00  0.00000000E+00  0.00000000E+00
  0.00000000E+00  0.00000000E+00  0.00000000E+00
  0.00000000E+00  0.00000000E+00  0.00000000E+00
  0.00000000E+00  0.00000000E+00  0.00000000E+00
  0.00000000E+00  0.00000000E+00  0.00000000E+00
  0.00000000E+00  0.00000000E+00  0.00000000E+00
  0.00000000E+00  0.00000000E+00  0.00000000E+00
  0.00000000E+00  0.00000000E+00  0.00000000E+00
  0.00000000E+00  0.00000000E+00  0.00000000E+00
  0.00000000E+00  0.00000000E+00  0.00000000E+00
  0.00000000E+00  0.00000000E+00  0.00000000E+00
  0.00000000E+00  0.00000000E+00  0.00000000E+00
  0.00000000E+00  0.00000000E+00  0.00000000E+00
  0.00000000E+00  0.00000000E+00  0.00000000E+00
  0.00000000E+00  0.00000000E+00  0.00000000E+00
  0.00000000E+00  0.00000000E+00  0.00000000E+00
  0.00000000E+00  0.00000000E+00  0.00000000E+00
  0.00000000E+00  0.00000000E+00  0.00000000E+00
  0.00000000E+00  0.00000000E+00  0.00000000E+00
  0.00000000E+00  0.00000000E+00  0.00000000E+00
  0.00000000E+00  0.00000000E+00  0.00000000E+00
  0.00000000E+00  0.00000000E+00  0.00000000E+00
  0.00000000E+00  0.00000000E+00  0.00000000E+00
  0.00000000E+00  0.00000000E+00  0.00000000E+00
  0.00000000E+00  0.00000000E+00  0.00000000E+00
  0.00000000E+00  0.00000000E+00  0.00000000E+00
  0.00000000E+00  0.00000000E+00  0.00000000E+00
  0.00000000E+00  0.00000000E+00  0.00000000E+00
  0.00000000E+00  0.00000000E+00  0.00000000E+00
  0.00000000E+00  0.00000000E+00  0.00000000E+00
  0.00000000E+00  0.00000000E+00  0.00000000E+00
  0.00000000E+00  0.00000000E+00  0.00000000E+00
  0.00000000E+00  0.00000000E+00  0.00000000E+00
  0.00000000E+00  0.00000000E+00  0.00000000E+00
  0.00000000E+00  0.00000000E+00  0.00000000E+00
  0.00000000E+00  0.00000000E+00  0.00000000E+00
  0.00000000E+00  0.00000000E+00  0.00000000E+00
  0.00000000E+00  0.00000000E+00  0.00000000E+00
  0.00000000E+00  0.00000000E+00  0.00000000E+00
  0.00000000E+00  0.00000000E+00  0.00000000E+00
  0.00000000E+00  0.00000000E+00  0.00000000E+00
  0.00000000E+00  0.00000000E+00  0.00000000E+00
  0.00000000E+00  0.00000000E+00  0.00000000E+00
  0.00000000E+00  0.00000000E+00  0.00000000E+00
  0.00000000E+00  0.00000000E+00  0.00000000E+00
  0.00000000E+00  0.00000000E+00  0.00000000E+00
  0.00000000E+00  0.00000000E+00  0.00000000E+00
  0.00000000E+00  0.00000000E+00  0.00000000E+00
  0.00000000E+00  0.00000000E+00  0.00000000E+00
  0.00000000E+00  0.00000000E+00  0.00000000E+00
  0.00000000E+00  0.00000000E+00  0.00000000E+00
  0.00000000E+00  0.00000000E+00  0.00000000E+00
  0.00000000E+00  0.00000000E+00  0.00000000E+00
  0.00000000E+00  0.00000000E+00  0.00000000E+00
  0.00000000E+00  0.00000000E+00  0.00000000E+00
  0.00000000E+00  0.00000000E+00  0.00000000E+00
  0.00000000E+00  0.00000000E+00  0.00000000E+00
