generated by phonopy                    
   0.9966554934125961     
    48.4062294393270065    0.0000000000000000   -0.0000000000000000
     0.0000000000000000    5.0606321480743919    0.0000000000000000
    -0.0000000000000000   -2.5303160740371959    4.3826359994406392
   Co   Ru
    88     8
Direct
  0.0229040737196479  0.3333333333333286  0.1666666666666714
  0.0229040737196479  0.3333333333333286  0.6666666666666714
  0.0229040737196479  0.8333333333333286  0.1666666666666714
  0.0229040737196479  0.8333333333333286  0.6666666666666714
  0.0639680686944124  0.1666666666666714  0.3333333333333286
  0.0639680686944124  0.1666666666666714  0.8333333333333286
  0.0639680686944124  0.6666666666666714  0.3333333333333286
  0.0639680686944124  0.6666666666666714  0.8333333333333286
  0.1052323778984850  0.3333333333333286  0.1666666666666714
  0.1052323778984850  0.3333333333333286  0.6666666666666714
  0.1052323778984850  0.8333333333333286  0.1666666666666714
  0.1052323778984850  0.8333333333333286  0.6666666666666714
  0.1465418166203139  0.1666666666666714  0.3333333333333286
  0.1465418166203139  0.1666666666666714  0.8333333333333286
  0.1465418166203139  0.6666666666666714  0.3333333333333286
  0.1465418166203139  0.6666666666666714  0.8333333333333286
  0.1878580684385785  0.3333333333333286  0.1666666666666714
  0.1878580684385785  0.3333333333333286  0.6666666666666714
  0.1878580684385785  0.8333333333333286  0.1666666666666714
  0.1878580684385785  0.8333333333333286  0.6666666666666714
  0.2291666666666643  0.1666666666666714  0.3333333333333286
  0.2291666666666643  0.1666666666666714  0.8333333333333286
  0.2291666666666643  0.6666666666666714  0.3333333333333286
  0.2291666666666643  0.6666666666666714  0.8333333333333286
  0.2704752648947572  0.3333333333333286  0.1666666666666714
  0.2704752648947572  0.3333333333333286  0.6666666666666714
  0.2704752648947572  0.8333333333333286  0.1666666666666714
  0.2704752648947572  0.8333333333333286  0.6666666666666714
  0.3117915167130221  0.1666666666666714  0.3333333333333286
  0.3117915167130221  0.1666666666666714  0.8333333333333286
  0.3117915167130221  0.6666666666666714  0.3333333333333286
  0.3117915167130221  0.6666666666666714  0.8333333333333286
  0.3531009554348436  0.3333333333333286  0.1666666666666714
  0.3531009554348436  0.3333333333333286  0.6666666666666714
  0.3531009554348436  0.8333333333333286  0.1666666666666714
  0.3531009554348436  0.8333333333333286  0.6666666666666714
  0.3943652646389231  0.1666666666666714  0.3333333333333286
  0.3943652646389231  0.1666666666666714  0.8333333333333286
  0.3943652646389231  0.6666666666666714  0.3333333333333286
  0.3943652646389231  0.6666666666666714  0.8333333333333286
  0.4354292596136880  0.3333333333333286  0.1666666666666714
  0.4354292596136880  0.3333333333333286  0.6666666666666714
  0.4354292596136880  0.8333333333333286  0.1666666666666714
  0.4354292596136880  0.8333333333333286  0.6666666666666714
  0.5229040737196483  0.3333333333333286  0.1666666666666714
  0.5229040737196483  0.3333333333333286  0.6666666666666714
  0.5229040737196483  0.8333333333333286  0.1666666666666714
  0.5229040737196483  0.8333333333333286  0.6666666666666714
  0.5639680686944121  0.1666666666666714  0.3333333333333286
  0.5639680686944121  0.1666666666666714  0.8333333333333286
  0.5639680686944121  0.6666666666666714  0.3333333333333286
  0.5639680686944121  0.6666666666666714  0.8333333333333286
  0.6052323778984849  0.3333333333333286  0.1666666666666714
  0.6052323778984849  0.3333333333333286  0.6666666666666714
  0.6052323778984849  0.8333333333333286  0.1666666666666714
  0.6052323778984849  0.8333333333333286  0.6666666666666714
  0.6465418166203136  0.1666666666666714  0.3333333333333286
  0.6465418166203136  0.1666666666666714  0.8333333333333286
  0.6465418166203136  0.6666666666666714  0.3333333333333286
  0.6465418166203136  0.6666666666666714  0.8333333333333286
  0.6878580684385790  0.3333333333333286  0.1666666666666714
  0.6878580684385790  0.3333333333333286  0.6666666666666714
  0.6878580684385790  0.8333333333333286  0.1666666666666714
  0.6878580684385790  0.8333333333333286  0.6666666666666714
  0.7291666666666643  0.1666666666666714  0.3333333333333286
  0.7291666666666643  0.1666666666666714  0.8333333333333286
  0.7291666666666643  0.6666666666666714  0.3333333333333286
  0.7291666666666643  0.6666666666666714  0.8333333333333286
  0.7704752648947567  0.3333333333333286  0.1666666666666714
  0.7704752648947567  0.3333333333333286  0.6666666666666714
  0.7704752648947567  0.8333333333333286  0.1666666666666714
  0.7704752648947567  0.8333333333333286  0.6666666666666714
  0.8117915167130221  0.1666666666666714  0.3333333333333286
  0.8117915167130221  0.1666666666666714  0.8333333333333286
  0.8117915167130221  0.6666666666666714  0.3333333333333286
  0.8117915167130221  0.6666666666666714  0.8333333333333286
  0.8531009554348437  0.3333333333333286  0.1666666666666714
  0.8531009554348437  0.3333333333333286  0.6666666666666714
  0.8531009554348437  0.8333333333333286  0.1666666666666714
  0.8531009554348437  0.8333333333333286  0.6666666666666714
  0.8943652646389236  0.1666666666666714  0.3333333333333286
  0.8943652646389236  0.1666666666666714  0.8333333333333286
  0.8943652646389236  0.6666666666666714  0.3333333333333286
  0.8943652646389236  0.6666666666666714  0.8333333333333286
  0.9354292596136874  0.3333333333333286  0.1666666666666714
  0.9354292596136874  0.3333333333333286  0.6666666666666714
  0.9354292596136874  0.8333333333333286  0.1666666666666714
  0.9354292596136874  0.8333333333333286  0.6666666666666714
  0.4791666666666643  0.1666666666666714  0.3333333333333286
  0.4791666666666643  0.1666666666666714  0.8333333333333286
  0.4791666666666643  0.6666666666666714  0.3333333333333286
  0.4791666666666643  0.6666666666666714  0.8333333333333286
  0.9791666666666643  0.1666666666666714  0.3333333333333286
  0.9791666666666643  0.1666666666666714  0.8333333333333286
  0.9791666666666643  0.6666666666666714  0.3333333333333286
  0.9791666666666643  0.6666666666666714  0.8333333333333286
 
  0.00000000E+00  0.00000000E+00  0.00000000E+00
  0.00000000E+00  0.00000000E+00  0.00000000E+00
  0.00000000E+00  0.00000000E+00  0.00000000E+00
  0.00000000E+00  0.00000000E+00  0.00000000E+00
  0.00000000E+00  0.00000000E+00  0.00000000E+00
  0.00000000E+00  0.00000000E+00  0.00000000E+00
  0.00000000E+00  0.00000000E+00  0.00000000E+00
  0.00000000E+00  0.00000000E+00  0.00000000E+00
  0.00000000E+00  0.00000000E+00  0.00000000E+00
  0.00000000E+00  0.00000000E+00  0.00000000E+00
  0.00000000E+00  0.00000000E+00  0.00000000E+00
  0.00000000E+00  0.00000000E+00  0.00000000E+00
  0.00000000E+00  0.00000000E+00  0.00000000E+00
  0.00000000E+00  0.00000000E+00  0.00000000E+00
  0.00000000E+00  0.00000000E+00  0.00000000E+00
  0.00000000E+00  0.00000000E+00  0.00000000E+00
  0.00000000E+00  0.00000000E+00  0.00000000E+00
  0.00000000E+00  0.00000000E+00  0.00000000E+00
  0.00000000E+00  0.00000000E+00  0.00000000E+00
  0.00000000E+00  0.00000000E+00  0.00000000E+00
  0.00000000E+00  0.00000000E+00  0.00000000E+00
  0.00000000E+00  0.00000000E+00  0.00000000E+00
  0.00000000E+00  0.00000000E+00  0.00000000E+00
  0.00000000E+00  0.00000000E+00  0.00000000E+00
  0.00000000E+00  0.00000000E+00  0.00000000E+00
  0.00000000E+00  0.00000000E+00  0.00000000E+00
  0.00000000E+00  0.00000000E+00  0.00000000E+00
  0.00000000E+00  0.00000000E+00  0.00000000E+00
  0.00000000E+00  0.00000000E+00  0.00000000E+00
  0.00000000E+00  0.00000000E+00  0.00000000E+00
  0.00000000E+00  0.00000000E+00  0.00000000E+00
  0.00000000E+00  0.00000000E+00  0.00000000E+00
  0.00000000E+00  0.00000000E+00  0.00000000E+00
  0.00000000E+00  0.00000000E+00  0.00000000E+00
  0.00000000E+00  0.00000000E+00  0.00000000E+00
  0.00000000E+00  0.00000000E+00  0.00000000E+00
  0.00000000E+00  0.00000000E+00  0.00000000E+00
  0.00000000E+00  0.00000000E+00  0.00000000E+00
  0.00000000E+00  0.00000000E+00  0.00000000E+00
  0.00000000E+00  0.00000000E+00  0.00000000E+00
  0.00000000E+00  0.00000000E+00  0.00000000E+00
  0.00000000E+00  0.00000000E+00  0.00000000E+00
  0.00000000E+00  0.00000000E+00  0.00000000E+00
  0.00000000E+00  0.00000000E+00  0.00000000E+00
  0.00000000E+00  0.00000000E+00  0.00000000E+00
  0.00000000E+00  0.00000000E+00  0.00000000E+00
  0.00000000E+00  0.00000000E+00  0.00000000E+00
  0.00000000E+00  0.00000000E+00  0.00000000E+00
  0.00000000E+00  0.00000000E+00  0.00000000E+00
  0.00000000E+00  0.00000000E+00  0.00000000E+00
  0.00000000E+00  0.00000000E+00  0.00000000E+00
  0.00000000E+00  0.00000000E+00  0.00000000E+00
  0.00000000E+00  0.00000000E+00  0.00000000E+00
  0.00000000E+00  0.00000000E+00  0.00000000E+00
  0.00000000E+00  0.00000000E+00  0.00000000E+00
  0.00000000E+00  0.00000000E+00  0.00000000E+00
  0.00000000E+00  0.00000000E+00  0.00000000E+00
  0.00000000E+00  0.00000000E+00  0.00000000E+00
  0.00000000E+00  0.00000000E+00  0.00000000E+00
  0.00000000E+00  0.00000000E+00  0.00000000E+00
  0.00000000E+00  0.00000000E+00  0.00000000E+00
  0.00000000E+00  0.00000000E+00  0.00000000E+00
  0.00000000E+00  0.00000000E+00  0.00000000E+00
  0.00000000E+00  0.00000000E+00  0.00000000E+00
  0.00000000E+00  0.00000000E+00  0.00000000E+00
  0.00000000E+00  0.00000000E+00  0.00000000E+00
  0.00000000E+00  0.00000000E+00  0.00000000E+00
  0.00000000E+00  0.00000000E+00  0.00000000E+00
  0.00000000E+00  0.00000000E+00  0.00000000E+00
  0.00000000E+00  0.00000000E+00  0.00000000E+00
  0.00000000E+00  0.00000000E+00  0.00000000E+00
  0.00000000E+00  0.00000000E+00  0.00000000E+00
  0.00000000E+00  0.00000000E+00  0.00000000E+00
  0.00000000E+00  0.00000000E+00  0.00000000E+00
  0.00000000E+00  0.00000000E+00  0.00000000E+00
  0.00000000E+00  0.00000000E+00  0.00000000E+00
  0.00000000E+00  0.00000000E+00  0.00000000E+00
  0.00000000E+00  0.00000000E+00  0.00000000E+00
  0.00000000E+00  0.00000000E+00  0.00000000E+00
  0.00000000E+00  0.00000000E+00  0.00000000E+00
  0.00000000E+00  0.00000000E+00  0.00000000E+00
  0.00000000E+00  0.00000000E+00  0.00000000E+00
  0.00000000E+00  0.00000000E+00  0.00000000E+00
  0.00000000E+00  0.00000000E+00  0.00000000E+00
  0.00000000E+00  0.00000000E+00  0.00000000E+00
  0.00000000E+00  0.00000000E+00  0.00000000E+00
  0.00000000E+00  0.00000000E+00  0.00000000E+00
  0.00000000E+00  0.00000000E+00  0.00000000E+00
  0.00000000E+00  0.00000000E+00  0.00000000E+00
  0.00000000E+00  0.00000000E+00  0.00000000E+00
  0.00000000E+00  0.00000000E+00  0.00000000E+00
  0.00000000E+00  0.00000000E+00  0.00000000E+00
  0.00000000E+00  0.00000000E+00  0.00000000E+00
  0.00000000E+00  0.00000000E+00  0.00000000E+00
  0.00000000E+00  0.00000000E+00  0.00000000E+00
  0.00000000E+00  0.00000000E+00  0.00000000E+00
