generated by phonopy                    
    1.003322283542089     
    24.1941903169957548    0.0000000000000000   -0.0000000000000000
     0.0000000000000000    5.1296365955577405   -0.0000000000000000
    -0.0000000000000000   -2.5648182977788703    4.4423956039353287
   Co   Ru
    40     8
Direct
  0.0444957228198675  0.3333333333333286  0.1666666666666714
  0.0444957228198675  0.3333333333333286  0.6666666666666714
  0.0444957228198675  0.8333333333333286  0.1666666666666714
  0.0444957228198675  0.8333333333333286  0.6666666666666714
  0.1264248403391690  0.1666666666666714  0.3333333333333286
  0.1264248403391690  0.1666666666666714  0.8333333333333286
  0.1264248403391690  0.6666666666666714  0.3333333333333286
  0.1264248403391690  0.6666666666666714  0.8333333333333286
  0.2083333333333357  0.3333333333333286  0.1666666666666714
  0.2083333333333357  0.3333333333333286  0.6666666666666714
  0.2083333333333357  0.8333333333333286  0.1666666666666714
  0.2083333333333357  0.8333333333333286  0.6666666666666714
  0.2902418263274953  0.1666666666666714  0.3333333333333286
  0.2902418263274953  0.1666666666666714  0.8333333333333286
  0.2902418263274953  0.6666666666666714  0.3333333333333286
  0.2902418263274953  0.6666666666666714  0.8333333333333286
  0.3721709438467968  0.3333333333333286  0.1666666666666714
  0.3721709438467968  0.3333333333333286  0.6666666666666714
  0.3721709438467968  0.8333333333333286  0.1666666666666714
  0.3721709438467968  0.8333333333333286  0.6666666666666714
  0.5444957228198675  0.3333333333333286  0.1666666666666714
  0.5444957228198675  0.3333333333333286  0.6666666666666714
  0.5444957228198675  0.8333333333333286  0.1666666666666714
  0.5444957228198675  0.8333333333333286  0.6666666666666714
  0.6264248403391690  0.1666666666666714  0.3333333333333286
  0.6264248403391690  0.1666666666666714  0.8333333333333286
  0.6264248403391690  0.6666666666666714  0.3333333333333286
  0.6264248403391690  0.6666666666666714  0.8333333333333286
  0.7083333333333357  0.3333333333333286  0.1666666666666714
  0.7083333333333357  0.3333333333333286  0.6666666666666714
  0.7083333333333357  0.8333333333333286  0.1666666666666714
  0.7083333333333357  0.8333333333333286  0.6666666666666714
  0.7902418263274953  0.1666666666666714  0.3333333333333286
  0.7902418263274953  0.1666666666666714  0.8333333333333286
  0.7902418263274953  0.6666666666666714  0.3333333333333286
  0.7902418263274953  0.6666666666666714  0.8333333333333286
  0.8721709438467968  0.3333333333333286  0.1666666666666714
  0.8721709438467968  0.3333333333333286  0.6666666666666714
  0.8721709438467968  0.8333333333333286  0.1666666666666714
  0.8721709438467968  0.8333333333333286  0.6666666666666714
  0.4583333333333357  0.1666666666666714  0.3333333333333286
  0.4583333333333357  0.1666666666666714  0.8333333333333286
  0.4583333333333357  0.6666666666666714  0.3333333333333286
  0.4583333333333357  0.6666666666666714  0.8333333333333286
  0.9583333333333357  0.1666666666666714  0.3333333333333286
  0.9583333333333357  0.1666666666666714  0.8333333333333286
  0.9583333333333357  0.6666666666666714  0.3333333333333286
  0.9583333333333357  0.6666666666666714  0.8333333333333286
 
  0.00000000E+00  0.00000000E+00  0.00000000E+00
  0.00000000E+00  0.00000000E+00  0.00000000E+00
  0.00000000E+00  0.00000000E+00  0.00000000E+00
  0.00000000E+00  0.00000000E+00  0.00000000E+00
  0.00000000E+00  0.00000000E+00  0.00000000E+00
  0.00000000E+00  0.00000000E+00  0.00000000E+00
  0.00000000E+00  0.00000000E+00  0.00000000E+00
  0.00000000E+00  0.00000000E+00  0.00000000E+00
  0.00000000E+00  0.00000000E+00  0.00000000E+00
  0.00000000E+00  0.00000000E+00  0.00000000E+00
  0.00000000E+00  0.00000000E+00  0.00000000E+00
  0.00000000E+00  0.00000000E+00  0.00000000E+00
  0.00000000E+00  0.00000000E+00  0.00000000E+00
  0.00000000E+00  0.00000000E+00  0.00000000E+00
  0.00000000E+00  0.00000000E+00  0.00000000E+00
  0.00000000E+00  0.00000000E+00  0.00000000E+00
  0.00000000E+00  0.00000000E+00  0.00000000E+00
  0.00000000E+00  0.00000000E+00  0.00000000E+00
  0.00000000E+00  0.00000000E+00  0.00000000E+00
  0.00000000E+00  0.00000000E+00  0.00000000E+00
  0.00000000E+00  0.00000000E+00  0.00000000E+00
  0.00000000E+00  0.00000000E+00  0.00000000E+00
  0.00000000E+00  0.00000000E+00  0.00000000E+00
  0.00000000E+00  0.00000000E+00  0.00000000E+00
  0.00000000E+00  0.00000000E+00  0.00000000E+00
  0.00000000E+00  0.00000000E+00  0.00000000E+00
  0.00000000E+00  0.00000000E+00  0.00000000E+00
  0.00000000E+00  0.00000000E+00  0.00000000E+00
  0.00000000E+00  0.00000000E+00  0.00000000E+00
  0.00000000E+00  0.00000000E+00  0.00000000E+00
  0.00000000E+00  0.00000000E+00  0.00000000E+00
  0.00000000E+00  0.00000000E+00  0.00000000E+00
  0.00000000E+00  0.00000000E+00  0.00000000E+00
  0.00000000E+00  0.00000000E+00  0.00000000E+00
  0.00000000E+00  0.00000000E+00  0.00000000E+00
  0.00000000E+00  0.00000000E+00  0.00000000E+00
  0.00000000E+00  0.00000000E+00  0.00000000E+00
  0.00000000E+00  0.00000000E+00  0.00000000E+00
  0.00000000E+00  0.00000000E+00  0.00000000E+00
  0.00000000E+00  0.00000000E+00  0.00000000E+00
  0.00000000E+00  0.00000000E+00  0.00000000E+00
  0.00000000E+00  0.00000000E+00  0.00000000E+00
  0.00000000E+00  0.00000000E+00  0.00000000E+00
  0.00000000E+00  0.00000000E+00  0.00000000E+00
  0.00000000E+00  0.00000000E+00  0.00000000E+00
  0.00000000E+00  0.00000000E+00  0.00000000E+00
  0.00000000E+00  0.00000000E+00  0.00000000E+00
  0.00000000E+00  0.00000000E+00  0.00000000E+00
