generated by phonopy                    
    1.006622709560113     
    24.1943157478792337   -0.0000000000000000   -0.0000000000000000
    -0.0000000000000000    5.1296232987220138    0.0000000000000000
     0.0000000000000000   -2.5648116493610069    4.4423840885377999
   Co   Ru
    40     8
Direct
  0.0444048071031915  0.3333333333333286  0.1666666666666714
  0.0444048071031915  0.3333333333333286  0.6666666666666714
  0.0444048071031915  0.8333333333333286  0.1666666666666714
  0.0444048071031915  0.8333333333333286  0.6666666666666714
  0.1264014886998055  0.1666666666666714  0.3333333333333286
  0.1264014886998055  0.1666666666666714  0.8333333333333286
  0.1264014886998055  0.6666666666666714  0.3333333333333286
  0.1264014886998055  0.6666666666666714  0.8333333333333286
  0.2083333333333357  0.3333333333333286  0.1666666666666714
  0.2083333333333357  0.3333333333333286  0.6666666666666714
  0.2083333333333357  0.8333333333333286  0.1666666666666714
  0.2083333333333357  0.8333333333333286  0.6666666666666714
  0.2902651779668588  0.1666666666666714  0.3333333333333286
  0.2902651779668588  0.1666666666666714  0.8333333333333286
  0.2902651779668588  0.6666666666666714  0.3333333333333286
  0.2902651779668588  0.6666666666666714  0.8333333333333286
  0.3722618595634728  0.3333333333333286  0.1666666666666714
  0.3722618595634728  0.3333333333333286  0.6666666666666714
  0.3722618595634728  0.8333333333333286  0.1666666666666714
  0.3722618595634728  0.8333333333333286  0.6666666666666714
  0.5444048071031915  0.3333333333333286  0.1666666666666714
  0.5444048071031915  0.3333333333333286  0.6666666666666714
  0.5444048071031915  0.8333333333333286  0.1666666666666714
  0.5444048071031915  0.8333333333333286  0.6666666666666714
  0.6264014886998055  0.1666666666666714  0.3333333333333286
  0.6264014886998055  0.1666666666666714  0.8333333333333286
  0.6264014886998055  0.6666666666666714  0.3333333333333286
  0.6264014886998055  0.6666666666666714  0.8333333333333286
  0.7083333333333357  0.3333333333333286  0.1666666666666714
  0.7083333333333357  0.3333333333333286  0.6666666666666714
  0.7083333333333357  0.8333333333333286  0.1666666666666714
  0.7083333333333357  0.8333333333333286  0.6666666666666714
  0.7902651779668588  0.1666666666666714  0.3333333333333286
  0.7902651779668588  0.1666666666666714  0.8333333333333286
  0.7902651779668588  0.6666666666666714  0.3333333333333286
  0.7902651779668588  0.6666666666666714  0.8333333333333286
  0.8722618595634728  0.3333333333333286  0.1666666666666714
  0.8722618595634728  0.3333333333333286  0.6666666666666714
  0.8722618595634728  0.8333333333333286  0.1666666666666714
  0.8722618595634728  0.8333333333333286  0.6666666666666714
  0.4583333333333357  0.1666666666666714  0.3333333333333286
  0.4583333333333357  0.1666666666666714  0.8333333333333286
  0.4583333333333357  0.6666666666666714  0.3333333333333286
  0.4583333333333357  0.6666666666666714  0.8333333333333286
  0.9583333333333357  0.1666666666666714  0.3333333333333286
  0.9583333333333357  0.1666666666666714  0.8333333333333286
  0.9583333333333357  0.6666666666666714  0.3333333333333286
  0.9583333333333357  0.6666666666666714  0.8333333333333286
 
  0.00000000E+00  0.00000000E+00  0.00000000E+00
  0.00000000E+00  0.00000000E+00  0.00000000E+00
  0.00000000E+00  0.00000000E+00  0.00000000E+00
  0.00000000E+00  0.00000000E+00  0.00000000E+00
  0.00000000E+00  0.00000000E+00  0.00000000E+00
  0.00000000E+00  0.00000000E+00  0.00000000E+00
  0.00000000E+00  0.00000000E+00  0.00000000E+00
  0.00000000E+00  0.00000000E+00  0.00000000E+00
  0.00000000E+00  0.00000000E+00  0.00000000E+00
  0.00000000E+00  0.00000000E+00  0.00000000E+00
  0.00000000E+00  0.00000000E+00  0.00000000E+00
  0.00000000E+00  0.00000000E+00  0.00000000E+00
  0.00000000E+00  0.00000000E+00  0.00000000E+00
  0.00000000E+00  0.00000000E+00  0.00000000E+00
  0.00000000E+00  0.00000000E+00  0.00000000E+00
  0.00000000E+00  0.00000000E+00  0.00000000E+00
  0.00000000E+00  0.00000000E+00  0.00000000E+00
  0.00000000E+00  0.00000000E+00  0.00000000E+00
  0.00000000E+00  0.00000000E+00  0.00000000E+00
  0.00000000E+00  0.00000000E+00  0.00000000E+00
  0.00000000E+00  0.00000000E+00  0.00000000E+00
  0.00000000E+00  0.00000000E+00  0.00000000E+00
  0.00000000E+00  0.00000000E+00  0.00000000E+00
  0.00000000E+00  0.00000000E+00  0.00000000E+00
  0.00000000E+00  0.00000000E+00  0.00000000E+00
  0.00000000E+00  0.00000000E+00  0.00000000E+00
  0.00000000E+00  0.00000000E+00  0.00000000E+00
  0.00000000E+00  0.00000000E+00  0.00000000E+00
  0.00000000E+00  0.00000000E+00  0.00000000E+00
  0.00000000E+00  0.00000000E+00  0.00000000E+00
  0.00000000E+00  0.00000000E+00  0.00000000E+00
  0.00000000E+00  0.00000000E+00  0.00000000E+00
  0.00000000E+00  0.00000000E+00  0.00000000E+00
  0.00000000E+00  0.00000000E+00  0.00000000E+00
  0.00000000E+00  0.00000000E+00  0.00000000E+00
  0.00000000E+00  0.00000000E+00  0.00000000E+00
  0.00000000E+00  0.00000000E+00  0.00000000E+00
  0.00000000E+00  0.00000000E+00  0.00000000E+00
  0.00000000E+00  0.00000000E+00  0.00000000E+00
  0.00000000E+00  0.00000000E+00  0.00000000E+00
  0.00000000E+00  0.00000000E+00  0.00000000E+00
  0.00000000E+00  0.00000000E+00  0.00000000E+00
  0.00000000E+00  0.00000000E+00  0.00000000E+00
  0.00000000E+00  0.00000000E+00  0.00000000E+00
  0.00000000E+00  0.00000000E+00  0.00000000E+00
  0.00000000E+00  0.00000000E+00  0.00000000E+00
  0.00000000E+00  0.00000000E+00  0.00000000E+00
  0.00000000E+00  0.00000000E+00  0.00000000E+00
