generated by phonopy                    
   0.9965883740445293     
    44.3178448141893710    0.0000000000000000   -0.0000000000000000
    -0.0000000000000000    5.1276276224882791   -0.0000000000000003
     0.0000000000000000   -2.5638138112441400    4.4406557822216586
   Co   Ru
    72    16
Direct
  0.0267316604034960  0.3333333333333286  0.1666666666666714
  0.0267316604034960  0.3333333333333286  0.6666666666666714
  0.0267316604034960  0.8333333333333286  0.1666666666666714
  0.0267316604034960  0.8333333333333286  0.6666666666666714
  0.0709810406104429  0.1666666666666714  0.3333333333333286
  0.0709810406104429  0.1666666666666714  0.8333333333333286
  0.0709810406104429  0.6666666666666714  0.3333333333333286
  0.0709810406104429  0.6666666666666714  0.8333333333333286
  0.1154996078691905  0.3333333333333286  0.1666666666666714
  0.1154996078691905  0.3333333333333286  0.6666666666666714
  0.1154996078691905  0.8333333333333286  0.1666666666666714
  0.1154996078691905  0.8333333333333286  0.6666666666666714
  0.1600105488811465  0.1666666666666714  0.3333333333333286
  0.1600105488811465  0.1666666666666714  0.8333333333333286
  0.1600105488811465  0.6666666666666714  0.3333333333333286
  0.1600105488811465  0.6666666666666714  0.8333333333333286
  0.2045475528156473  0.3333333333333286  0.1666666666666714
  0.2045475528156473  0.3333333333333286  0.6666666666666714
  0.2045475528156473  0.8333333333333286  0.1666666666666714
  0.2045475528156473  0.8333333333333286  0.6666666666666714
  0.2490816700327798  0.1666666666666714  0.3333333333333286
  0.2490816700327798  0.1666666666666714  0.8333333333333286
  0.2490816700327798  0.6666666666666714  0.3333333333333286
  0.2490816700327798  0.6666666666666714  0.8333333333333286
  0.2935926693357785  0.3333333333333286  0.1666666666666714
  0.2935926693357785  0.3333333333333286  0.6666666666666714
  0.2935926693357785  0.8333333333333286  0.1666666666666714
  0.2935926693357785  0.8333333333333286  0.6666666666666714
  0.3381079498604844  0.1666666666666714  0.3333333333333286
  0.3381079498604844  0.1666666666666714  0.8333333333333286
  0.3381079498604844  0.6666666666666714  0.3333333333333286
  0.3381079498604844  0.6666666666666714  0.8333333333333286
  0.3823583439685437  0.3333333333333286  0.1666666666666714
  0.3823583439685437  0.3333333333333286  0.6666666666666714
  0.3823583439685437  0.8333333333333286  0.1666666666666714
  0.3823583439685437  0.8333333333333286  0.6666666666666714
  0.5267316604034964  0.1666666666666714  0.3333333333333286
  0.5267316604034964  0.1666666666666714  0.8333333333333286
  0.5267316604034964  0.6666666666666714  0.3333333333333286
  0.5267316604034964  0.6666666666666714  0.8333333333333286
  0.5709810406104431  0.3333333333333286  0.1666666666666714
  0.5709810406104431  0.3333333333333286  0.6666666666666714
  0.5709810406104431  0.8333333333333286  0.1666666666666714
  0.5709810406104431  0.8333333333333286  0.6666666666666714
  0.6154996078691902  0.1666666666666714  0.3333333333333286
  0.6154996078691902  0.1666666666666714  0.8333333333333286
  0.6154996078691902  0.6666666666666714  0.3333333333333286
  0.6154996078691902  0.6666666666666714  0.8333333333333286
  0.6600105488811466  0.3333333333333286  0.1666666666666714
  0.6600105488811466  0.3333333333333286  0.6666666666666714
  0.6600105488811466  0.8333333333333286  0.1666666666666714
  0.6600105488811466  0.8333333333333286  0.6666666666666714
  0.7045475528156473  0.1666666666666714  0.3333333333333286
  0.7045475528156473  0.1666666666666714  0.8333333333333286
  0.7045475528156473  0.6666666666666714  0.3333333333333286
  0.7045475528156473  0.6666666666666714  0.8333333333333286
  0.7490816700327797  0.3333333333333286  0.1666666666666714
  0.7490816700327797  0.3333333333333286  0.6666666666666714
  0.7490816700327797  0.8333333333333286  0.1666666666666714
  0.7490816700327797  0.8333333333333286  0.6666666666666714
  0.7935926693357792  0.1666666666666714  0.3333333333333286
  0.7935926693357792  0.1666666666666714  0.8333333333333286
  0.7935926693357792  0.6666666666666714  0.3333333333333286
  0.7935926693357792  0.6666666666666714  0.8333333333333286
  0.8381079498604841  0.3333333333333286  0.1666666666666714
  0.8381079498604841  0.3333333333333286  0.6666666666666714
  0.8381079498604841  0.8333333333333286  0.1666666666666714
  0.8381079498604841  0.8333333333333286  0.6666666666666714
  0.8823583439685432  0.1666666666666714  0.3333333333333286
  0.8823583439685432  0.1666666666666714  0.8333333333333286
  0.8823583439685432  0.6666666666666714  0.3333333333333286
  0.8823583439685432  0.6666666666666714  0.8333333333333286
  0.4297260563773008  0.1666666666666714  0.3333333333333286
  0.4297260563773008  0.1666666666666714  0.8333333333333286
  0.4297260563773008  0.6666666666666714  0.3333333333333286
  0.4297260563773008  0.6666666666666714  0.8333333333333286
  0.4793628998451894  0.3333333333333286  0.1666666666666714
  0.4793628998451894  0.3333333333333286  0.6666666666666714
  0.4793628998451894  0.8333333333333286  0.1666666666666714
  0.4793628998451894  0.8333333333333286  0.6666666666666714
  0.9297260563773002  0.3333333333333286  0.1666666666666714
  0.9297260563773002  0.3333333333333286  0.6666666666666714
  0.9297260563773002  0.8333333333333286  0.1666666666666714
  0.9297260563773002  0.8333333333333286  0.6666666666666714
  0.9793628998451829  0.1666666666666714  0.3333333333333286
  0.9793628998451829  0.1666666666666714  0.8333333333333286
  0.9793628998451829  0.6666666666666714  0.3333333333333286
  0.9793628998451829  0.6666666666666714  0.8333333333333286
 
  0.00000000E+00  0.00000000E+00  0.00000000E+00
  0.00000000E+00  0.00000000E+00  0.00000000E+00
  0.00000000E+00  0.00000000E+00  0.00000000E+00
  0.00000000E+00  0.00000000E+00  0.00000000E+00
  0.00000000E+00  0.00000000E+00  0.00000000E+00
  0.00000000E+00  0.00000000E+00  0.00000000E+00
  0.00000000E+00  0.00000000E+00  0.00000000E+00
  0.00000000E+00  0.00000000E+00  0.00000000E+00
  0.00000000E+00  0.00000000E+00  0.00000000E+00
  0.00000000E+00  0.00000000E+00  0.00000000E+00
  0.00000000E+00  0.00000000E+00  0.00000000E+00
  0.00000000E+00  0.00000000E+00  0.00000000E+00
  0.00000000E+00  0.00000000E+00  0.00000000E+00
  0.00000000E+00  0.00000000E+00  0.00000000E+00
  0.00000000E+00  0.00000000E+00  0.00000000E+00
  0.00000000E+00  0.00000000E+00  0.00000000E+00
  0.00000000E+00  0.00000000E+00  0.00000000E+00
  0.00000000E+00  0.00000000E+00  0.00000000E+00
  0.00000000E+00  0.00000000E+00  0.00000000E+00
  0.00000000E+00  0.00000000E+00  0.00000000E+00
  0.00000000E+00  0.00000000E+00  0.00000000E+00
  0.00000000E+00  0.00000000E+00  0.00000000E+00
  0.00000000E+00  0.00000000E+00  0.00000000E+00
  0.00000000E+00  0.00000000E+00  0.00000000E+00
  0.00000000E+00  0.00000000E+00  0.00000000E+00
  0.00000000E+00  0.00000000E+00  0.00000000E+00
  0.00000000E+00  0.00000000E+00  0.00000000E+00
  0.00000000E+00  0.00000000E+00  0.00000000E+00
  0.00000000E+00  0.00000000E+00  0.00000000E+00
  0.00000000E+00  0.00000000E+00  0.00000000E+00
  0.00000000E+00  0.00000000E+00  0.00000000E+00
  0.00000000E+00  0.00000000E+00  0.00000000E+00
  0.00000000E+00  0.00000000E+00  0.00000000E+00
  0.00000000E+00  0.00000000E+00  0.00000000E+00
  0.00000000E+00  0.00000000E+00  0.00000000E+00
  0.00000000E+00  0.00000000E+00  0.00000000E+00
  0.00000000E+00  0.00000000E+00  0.00000000E+00
  0.00000000E+00  0.00000000E+00  0.00000000E+00
  0.00000000E+00  0.00000000E+00  0.00000000E+00
  0.00000000E+00  0.00000000E+00  0.00000000E+00
  0.00000000E+00  0.00000000E+00  0.00000000E+00
  0.00000000E+00  0.00000000E+00  0.00000000E+00
  0.00000000E+00  0.00000000E+00  0.00000000E+00
  0.00000000E+00  0.00000000E+00  0.00000000E+00
  0.00000000E+00  0.00000000E+00  0.00000000E+00
  0.00000000E+00  0.00000000E+00  0.00000000E+00
  0.00000000E+00  0.00000000E+00  0.00000000E+00
  0.00000000E+00  0.00000000E+00  0.00000000E+00
  0.00000000E+00  0.00000000E+00  0.00000000E+00
  0.00000000E+00  0.00000000E+00  0.00000000E+00
  0.00000000E+00  0.00000000E+00  0.00000000E+00
  0.00000000E+00  0.00000000E+00  0.00000000E+00
  0.00000000E+00  0.00000000E+00  0.00000000E+00
  0.00000000E+00  0.00000000E+00  0.00000000E+00
  0.00000000E+00  0.00000000E+00  0.00000000E+00
  0.00000000E+00  0.00000000E+00  0.00000000E+00
  0.00000000E+00  0.00000000E+00  0.00000000E+00
  0.00000000E+00  0.00000000E+00  0.00000000E+00
  0.00000000E+00  0.00000000E+00  0.00000000E+00
  0.00000000E+00  0.00000000E+00  0.00000000E+00
  0.00000000E+00  0.00000000E+00  0.00000000E+00
  0.00000000E+00  0.00000000E+00  0.00000000E+00
  0.00000000E+00  0.00000000E+00  0.00000000E+00
  0.00000000E+00  0.00000000E+00  0.00000000E+00
  0.00000000E+00  0.00000000E+00  0.00000000E+00
  0.00000000E+00  0.00000000E+00  0.00000000E+00
  0.00000000E+00  0.00000000E+00  0.00000000E+00
  0.00000000E+00  0.00000000E+00  0.00000000E+00
  0.00000000E+00  0.00000000E+00  0.00000000E+00
  0.00000000E+00  0.00000000E+00  0.00000000E+00
  0.00000000E+00  0.00000000E+00  0.00000000E+00
  0.00000000E+00  0.00000000E+00  0.00000000E+00
  0.00000000E+00  0.00000000E+00  0.00000000E+00
  0.00000000E+00  0.00000000E+00  0.00000000E+00
  0.00000000E+00  0.00000000E+00  0.00000000E+00
  0.00000000E+00  0.00000000E+00  0.00000000E+00
  0.00000000E+00  0.00000000E+00  0.00000000E+00
  0.00000000E+00  0.00000000E+00  0.00000000E+00
  0.00000000E+00  0.00000000E+00  0.00000000E+00
  0.00000000E+00  0.00000000E+00  0.00000000E+00
  0.00000000E+00  0.00000000E+00  0.00000000E+00
  0.00000000E+00  0.00000000E+00  0.00000000E+00
  0.00000000E+00  0.00000000E+00  0.00000000E+00
  0.00000000E+00  0.00000000E+00  0.00000000E+00
  0.00000000E+00  0.00000000E+00  0.00000000E+00
  0.00000000E+00  0.00000000E+00  0.00000000E+00
  0.00000000E+00  0.00000000E+00  0.00000000E+00
  0.00000000E+00  0.00000000E+00  0.00000000E+00
