generated by phonopy                    
   0.9999666655554938     
    44.3197658805074752    0.0000000000000000   -0.0000000000000000
     0.0000000000000000    5.1275164912664843   -0.0000000000000003
    -0.0000000000000000   -2.5637582456332422    4.4405595397604323
   Co   Ru
    72    16
Direct
  0.0267037353321335  0.3333333333333286  0.1666666666666714
  0.0267037353321335  0.3333333333333286  0.6666666666666714
  0.0267037353321335  0.8333333333333286  0.1666666666666714
  0.0267037353321335  0.8333333333333286  0.6666666666666714
  0.0709818510479004  0.1666666666666714  0.3333333333333286
  0.0709818510479004  0.1666666666666714  0.8333333333333286
  0.0709818510479004  0.6666666666666714  0.3333333333333286
  0.0709818510479004  0.6666666666666714  0.8333333333333286
  0.1155125237198551  0.3333333333333286  0.1666666666666714
  0.1155125237198551  0.3333333333333286  0.6666666666666714
  0.1155125237198551  0.8333333333333286  0.1666666666666714
  0.1155125237198551  0.8333333333333286  0.6666666666666714
  0.1600190928884168  0.1666666666666714  0.3333333333333286
  0.1600190928884168  0.1666666666666714  0.8333333333333286
  0.1600190928884168  0.6666666666666714  0.3333333333333286
  0.1600190928884168  0.6666666666666714  0.8333333333333286
  0.2045475528156473  0.3333333333333286  0.1666666666666714
  0.2045475528156473  0.3333333333333286  0.6666666666666714
  0.2045475528156473  0.8333333333333286  0.1666666666666714
  0.2045475528156473  0.8333333333333286  0.6666666666666714
  0.2490731260255095  0.1666666666666714  0.3333333333333286
  0.2490731260255095  0.1666666666666714  0.8333333333333286
  0.2490731260255095  0.6666666666666714  0.3333333333333286
  0.2490731260255095  0.6666666666666714  0.8333333333333286
  0.2935797534851143  0.3333333333333286  0.1666666666666714
  0.2935797534851143  0.3333333333333286  0.6666666666666714
  0.2935797534851143  0.8333333333333286  0.1666666666666714
  0.2935797534851143  0.8333333333333286  0.6666666666666714
  0.3381071394230267  0.1666666666666714  0.3333333333333286
  0.3381071394230267  0.1666666666666714  0.8333333333333286
  0.3381071394230267  0.6666666666666714  0.3333333333333286
  0.3381071394230267  0.6666666666666714  0.8333333333333286
  0.3823862690399061  0.3333333333333286  0.1666666666666714
  0.3823862690399061  0.3333333333333286  0.6666666666666714
  0.3823862690399061  0.8333333333333286  0.1666666666666714
  0.3823862690399061  0.8333333333333286  0.6666666666666714
  0.5267037353321334  0.1666666666666714  0.3333333333333286
  0.5267037353321334  0.1666666666666714  0.8333333333333286
  0.5267037353321334  0.6666666666666714  0.3333333333333286
  0.5267037353321334  0.6666666666666714  0.8333333333333286
  0.5709818510479007  0.3333333333333286  0.1666666666666714
  0.5709818510479007  0.3333333333333286  0.6666666666666714
  0.5709818510479007  0.8333333333333286  0.1666666666666714
  0.5709818510479007  0.8333333333333286  0.6666666666666714
  0.6155125237198551  0.1666666666666714  0.3333333333333286
  0.6155125237198551  0.1666666666666714  0.8333333333333286
  0.6155125237198551  0.6666666666666714  0.3333333333333286
  0.6155125237198551  0.6666666666666714  0.8333333333333286
  0.6600190928884166  0.3333333333333286  0.1666666666666714
  0.6600190928884166  0.3333333333333286  0.6666666666666714
  0.6600190928884166  0.8333333333333286  0.1666666666666714
  0.6600190928884166  0.8333333333333286  0.6666666666666714
  0.7045475528156473  0.1666666666666714  0.3333333333333286
  0.7045475528156473  0.1666666666666714  0.8333333333333286
  0.7045475528156473  0.6666666666666714  0.3333333333333286
  0.7045475528156473  0.6666666666666714  0.8333333333333286
  0.7490731260255097  0.3333333333333286  0.1666666666666714
  0.7490731260255097  0.3333333333333286  0.6666666666666714
  0.7490731260255097  0.8333333333333286  0.1666666666666714
  0.7490731260255097  0.8333333333333286  0.6666666666666714
  0.7935797534851143  0.1666666666666714  0.3333333333333286
  0.7935797534851143  0.1666666666666714  0.8333333333333286
  0.7935797534851143  0.6666666666666714  0.3333333333333286
  0.7935797534851143  0.6666666666666714  0.8333333333333286
  0.8381071394230265  0.3333333333333286  0.1666666666666714
  0.8381071394230265  0.3333333333333286  0.6666666666666714
  0.8381071394230265  0.8333333333333286  0.1666666666666714
  0.8381071394230265  0.8333333333333286  0.6666666666666714
  0.8823862690399061  0.1666666666666714  0.3333333333333286
  0.8823862690399061  0.1666666666666714  0.8333333333333286
  0.8823862690399061  0.6666666666666714  0.3333333333333286
  0.8823862690399061  0.6666666666666714  0.8333333333333286
  0.4297995902667651  0.1666666666666714  0.3333333333333286
  0.4297995902667651  0.1666666666666714  0.8333333333333286
  0.4297995902667651  0.6666666666666714  0.3333333333333286
  0.4297995902667651  0.6666666666666714  0.8333333333333286
  0.4792893659557251  0.3333333333333286  0.1666666666666714
  0.4792893659557251  0.3333333333333286  0.6666666666666714
  0.4792893659557251  0.8333333333333286  0.1666666666666714
  0.4792893659557251  0.8333333333333286  0.6666666666666714
  0.9297995902667651  0.3333333333333286  0.1666666666666714
  0.9297995902667651  0.3333333333333286  0.6666666666666714
  0.9297995902667651  0.8333333333333286  0.1666666666666714
  0.9297995902667651  0.8333333333333286  0.6666666666666714
  0.9792893659557180  0.1666666666666714  0.3333333333333286
  0.9792893659557180  0.1666666666666714  0.8333333333333286
  0.9792893659557180  0.6666666666666714  0.3333333333333286
  0.9792893659557180  0.6666666666666714  0.8333333333333286
 
  0.00000000E+00  0.00000000E+00  0.00000000E+00
  0.00000000E+00  0.00000000E+00  0.00000000E+00
  0.00000000E+00  0.00000000E+00  0.00000000E+00
  0.00000000E+00  0.00000000E+00  0.00000000E+00
  0.00000000E+00  0.00000000E+00  0.00000000E+00
  0.00000000E+00  0.00000000E+00  0.00000000E+00
  0.00000000E+00  0.00000000E+00  0.00000000E+00
  0.00000000E+00  0.00000000E+00  0.00000000E+00
  0.00000000E+00  0.00000000E+00  0.00000000E+00
  0.00000000E+00  0.00000000E+00  0.00000000E+00
  0.00000000E+00  0.00000000E+00  0.00000000E+00
  0.00000000E+00  0.00000000E+00  0.00000000E+00
  0.00000000E+00  0.00000000E+00  0.00000000E+00
  0.00000000E+00  0.00000000E+00  0.00000000E+00
  0.00000000E+00  0.00000000E+00  0.00000000E+00
  0.00000000E+00  0.00000000E+00  0.00000000E+00
  0.00000000E+00  0.00000000E+00  0.00000000E+00
  0.00000000E+00  0.00000000E+00  0.00000000E+00
  0.00000000E+00  0.00000000E+00  0.00000000E+00
  0.00000000E+00  0.00000000E+00  0.00000000E+00
  0.00000000E+00  0.00000000E+00  0.00000000E+00
  0.00000000E+00  0.00000000E+00  0.00000000E+00
  0.00000000E+00  0.00000000E+00  0.00000000E+00
  0.00000000E+00  0.00000000E+00  0.00000000E+00
  0.00000000E+00  0.00000000E+00  0.00000000E+00
  0.00000000E+00  0.00000000E+00  0.00000000E+00
  0.00000000E+00  0.00000000E+00  0.00000000E+00
  0.00000000E+00  0.00000000E+00  0.00000000E+00
  0.00000000E+00  0.00000000E+00  0.00000000E+00
  0.00000000E+00  0.00000000E+00  0.00000000E+00
  0.00000000E+00  0.00000000E+00  0.00000000E+00
  0.00000000E+00  0.00000000E+00  0.00000000E+00
  0.00000000E+00  0.00000000E+00  0.00000000E+00
  0.00000000E+00  0.00000000E+00  0.00000000E+00
  0.00000000E+00  0.00000000E+00  0.00000000E+00
  0.00000000E+00  0.00000000E+00  0.00000000E+00
  0.00000000E+00  0.00000000E+00  0.00000000E+00
  0.00000000E+00  0.00000000E+00  0.00000000E+00
  0.00000000E+00  0.00000000E+00  0.00000000E+00
  0.00000000E+00  0.00000000E+00  0.00000000E+00
  0.00000000E+00  0.00000000E+00  0.00000000E+00
  0.00000000E+00  0.00000000E+00  0.00000000E+00
  0.00000000E+00  0.00000000E+00  0.00000000E+00
  0.00000000E+00  0.00000000E+00  0.00000000E+00
  0.00000000E+00  0.00000000E+00  0.00000000E+00
  0.00000000E+00  0.00000000E+00  0.00000000E+00
  0.00000000E+00  0.00000000E+00  0.00000000E+00
  0.00000000E+00  0.00000000E+00  0.00000000E+00
  0.00000000E+00  0.00000000E+00  0.00000000E+00
  0.00000000E+00  0.00000000E+00  0.00000000E+00
  0.00000000E+00  0.00000000E+00  0.00000000E+00
  0.00000000E+00  0.00000000E+00  0.00000000E+00
  0.00000000E+00  0.00000000E+00  0.00000000E+00
  0.00000000E+00  0.00000000E+00  0.00000000E+00
  0.00000000E+00  0.00000000E+00  0.00000000E+00
  0.00000000E+00  0.00000000E+00  0.00000000E+00
  0.00000000E+00  0.00000000E+00  0.00000000E+00
  0.00000000E+00  0.00000000E+00  0.00000000E+00
  0.00000000E+00  0.00000000E+00  0.00000000E+00
  0.00000000E+00  0.00000000E+00  0.00000000E+00
  0.00000000E+00  0.00000000E+00  0.00000000E+00
  0.00000000E+00  0.00000000E+00  0.00000000E+00
  0.00000000E+00  0.00000000E+00  0.00000000E+00
  0.00000000E+00  0.00000000E+00  0.00000000E+00
  0.00000000E+00  0.00000000E+00  0.00000000E+00
  0.00000000E+00  0.00000000E+00  0.00000000E+00
  0.00000000E+00  0.00000000E+00  0.00000000E+00
  0.00000000E+00  0.00000000E+00  0.00000000E+00
  0.00000000E+00  0.00000000E+00  0.00000000E+00
  0.00000000E+00  0.00000000E+00  0.00000000E+00
  0.00000000E+00  0.00000000E+00  0.00000000E+00
  0.00000000E+00  0.00000000E+00  0.00000000E+00
  0.00000000E+00  0.00000000E+00  0.00000000E+00
  0.00000000E+00  0.00000000E+00  0.00000000E+00
  0.00000000E+00  0.00000000E+00  0.00000000E+00
  0.00000000E+00  0.00000000E+00  0.00000000E+00
  0.00000000E+00  0.00000000E+00  0.00000000E+00
  0.00000000E+00  0.00000000E+00  0.00000000E+00
  0.00000000E+00  0.00000000E+00  0.00000000E+00
  0.00000000E+00  0.00000000E+00  0.00000000E+00
  0.00000000E+00  0.00000000E+00  0.00000000E+00
  0.00000000E+00  0.00000000E+00  0.00000000E+00
  0.00000000E+00  0.00000000E+00  0.00000000E+00
  0.00000000E+00  0.00000000E+00  0.00000000E+00
  0.00000000E+00  0.00000000E+00  0.00000000E+00
  0.00000000E+00  0.00000000E+00  0.00000000E+00
  0.00000000E+00  0.00000000E+00  0.00000000E+00
  0.00000000E+00  0.00000000E+00  0.00000000E+00
