generated by phonopy                    
    1.006655604652112     
    32.2877376505813984    0.0000000000000000   -0.0000000000000000
     0.0000000000000000    5.1740057644596646    0.0000000000000002
    -0.0000000000000000   -2.5870028822298319    4.4808204313491968
   Co   Ru
    48    16
Direct
  0.0354093601350112  0.3333333333333286  0.1666666666666714
  0.0354093601350112  0.3333333333333286  0.6666666666666714
  0.0354093601350112  0.8333333333333286  0.1666666666666714
  0.0354093601350112  0.8333333333333286  0.6666666666666714
  0.0964334692160580  0.1666666666666714  0.3333333333333286
  0.0964334692160580  0.1666666666666714  0.8333333333333286
  0.0964334692160580  0.6666666666666714  0.3333333333333286
  0.0964334692160580  0.6666666666666714  0.8333333333333286
  0.1568618237106217  0.3333333333333286  0.1666666666666714
  0.1568618237106217  0.3333333333333286  0.6666666666666714
  0.1568618237106217  0.8333333333333286  0.1666666666666714
  0.1568618237106217  0.8333333333333286  0.6666666666666714
  0.2181417066725961  0.1666666666666714  0.3333333333333286
  0.2181417066725961  0.1666666666666714  0.8333333333333286
  0.2181417066725961  0.6666666666666714  0.3333333333333286
  0.2181417066725961  0.6666666666666714  0.8333333333333286
  0.2785680124024464  0.3333333333333286  0.1666666666666714
  0.2785680124024464  0.3333333333333286  0.6666666666666714
  0.2785680124024464  0.8333333333333286  0.1666666666666714
  0.2785680124024464  0.8333333333333286  0.6666666666666714
  0.3395891517229135  0.1666666666666714  0.3333333333333286
  0.3395891517229135  0.1666666666666714  0.8333333333333286
  0.3395891517229135  0.6666666666666714  0.3333333333333286
  0.3395891517229135  0.6666666666666714  0.8333333333333286
  0.5354093601350114  0.3333333333333286  0.1666666666666714
  0.5354093601350114  0.3333333333333286  0.6666666666666714
  0.5354093601350114  0.8333333333333286  0.1666666666666714
  0.5354093601350114  0.8333333333333286  0.6666666666666714
  0.5964334692160580  0.1666666666666714  0.3333333333333286
  0.5964334692160580  0.1666666666666714  0.8333333333333286
  0.5964334692160580  0.6666666666666714  0.3333333333333286
  0.5964334692160580  0.6666666666666714  0.8333333333333286
  0.6568618237106217  0.3333333333333286  0.1666666666666714
  0.6568618237106217  0.3333333333333286  0.6666666666666714
  0.6568618237106217  0.8333333333333286  0.1666666666666714
  0.6568618237106217  0.8333333333333286  0.6666666666666714
  0.7181417066725960  0.1666666666666714  0.3333333333333286
  0.7181417066725960  0.1666666666666714  0.8333333333333286
  0.7181417066725960  0.6666666666666714  0.3333333333333286
  0.7181417066725960  0.6666666666666714  0.8333333333333286
  0.7785680124024392  0.3333333333333286  0.1666666666666714
  0.7785680124024392  0.3333333333333286  0.6666666666666714
  0.7785680124024392  0.8333333333333286  0.1666666666666714
  0.7785680124024392  0.8333333333333286  0.6666666666666714
  0.8395891517229133  0.1666666666666714  0.3333333333333286
  0.8395891517229133  0.1666666666666714  0.8333333333333286
  0.8395891517229133  0.6666666666666714  0.3333333333333286
  0.8395891517229133  0.6666666666666714  0.8333333333333286
  0.4042660890181737  0.3333333333333286  0.1666666666666714
  0.4042660890181737  0.3333333333333286  0.6666666666666714
  0.4042660890181737  0.8333333333333286  0.1666666666666714
  0.4042660890181737  0.8333333333333286  0.6666666666666714
  0.4707303871221725  0.1666666666666714  0.3333333333333286
  0.4707303871221725  0.1666666666666714  0.8333333333333286
  0.4707303871221725  0.6666666666666714  0.3333333333333286
  0.4707303871221725  0.6666666666666714  0.8333333333333286
  0.9042660890181735  0.3333333333333286  0.1666666666666714
  0.9042660890181735  0.3333333333333286  0.6666666666666714
  0.9042660890181735  0.8333333333333286  0.1666666666666714
  0.9042660890181735  0.8333333333333286  0.6666666666666714
  0.9707303871221726  0.1666666666666714  0.3333333333333286
  0.9707303871221726  0.1666666666666714  0.8333333333333286
  0.9707303871221726  0.6666666666666714  0.3333333333333286
  0.9707303871221726  0.6666666666666714  0.8333333333333286
 
  0.00000000E+00  0.00000000E+00  0.00000000E+00
  0.00000000E+00  0.00000000E+00  0.00000000E+00
  0.00000000E+00  0.00000000E+00  0.00000000E+00
  0.00000000E+00  0.00000000E+00  0.00000000E+00
  0.00000000E+00  0.00000000E+00  0.00000000E+00
  0.00000000E+00  0.00000000E+00  0.00000000E+00
  0.00000000E+00  0.00000000E+00  0.00000000E+00
  0.00000000E+00  0.00000000E+00  0.00000000E+00
  0.00000000E+00  0.00000000E+00  0.00000000E+00
  0.00000000E+00  0.00000000E+00  0.00000000E+00
  0.00000000E+00  0.00000000E+00  0.00000000E+00
  0.00000000E+00  0.00000000E+00  0.00000000E+00
  0.00000000E+00  0.00000000E+00  0.00000000E+00
  0.00000000E+00  0.00000000E+00  0.00000000E+00
  0.00000000E+00  0.00000000E+00  0.00000000E+00
  0.00000000E+00  0.00000000E+00  0.00000000E+00
  0.00000000E+00  0.00000000E+00  0.00000000E+00
  0.00000000E+00  0.00000000E+00  0.00000000E+00
  0.00000000E+00  0.00000000E+00  0.00000000E+00
  0.00000000E+00  0.00000000E+00  0.00000000E+00
  0.00000000E+00  0.00000000E+00  0.00000000E+00
  0.00000000E+00  0.00000000E+00  0.00000000E+00
  0.00000000E+00  0.00000000E+00  0.00000000E+00
  0.00000000E+00  0.00000000E+00  0.00000000E+00
  0.00000000E+00  0.00000000E+00  0.00000000E+00
  0.00000000E+00  0.00000000E+00  0.00000000E+00
  0.00000000E+00  0.00000000E+00  0.00000000E+00
  0.00000000E+00  0.00000000E+00  0.00000000E+00
  0.00000000E+00  0.00000000E+00  0.00000000E+00
  0.00000000E+00  0.00000000E+00  0.00000000E+00
  0.00000000E+00  0.00000000E+00  0.00000000E+00
  0.00000000E+00  0.00000000E+00  0.00000000E+00
  0.00000000E+00  0.00000000E+00  0.00000000E+00
  0.00000000E+00  0.00000000E+00  0.00000000E+00
  0.00000000E+00  0.00000000E+00  0.00000000E+00
  0.00000000E+00  0.00000000E+00  0.00000000E+00
  0.00000000E+00  0.00000000E+00  0.00000000E+00
  0.00000000E+00  0.00000000E+00  0.00000000E+00
  0.00000000E+00  0.00000000E+00  0.00000000E+00
  0.00000000E+00  0.00000000E+00  0.00000000E+00
  0.00000000E+00  0.00000000E+00  0.00000000E+00
  0.00000000E+00  0.00000000E+00  0.00000000E+00
  0.00000000E+00  0.00000000E+00  0.00000000E+00
  0.00000000E+00  0.00000000E+00  0.00000000E+00
  0.00000000E+00  0.00000000E+00  0.00000000E+00
  0.00000000E+00  0.00000000E+00  0.00000000E+00
  0.00000000E+00  0.00000000E+00  0.00000000E+00
  0.00000000E+00  0.00000000E+00  0.00000000E+00
  0.00000000E+00  0.00000000E+00  0.00000000E+00
  0.00000000E+00  0.00000000E+00  0.00000000E+00
  0.00000000E+00  0.00000000E+00  0.00000000E+00
  0.00000000E+00  0.00000000E+00  0.00000000E+00
  0.00000000E+00  0.00000000E+00  0.00000000E+00
  0.00000000E+00  0.00000000E+00  0.00000000E+00
  0.00000000E+00  0.00000000E+00  0.00000000E+00
  0.00000000E+00  0.00000000E+00  0.00000000E+00
  0.00000000E+00  0.00000000E+00  0.00000000E+00
  0.00000000E+00  0.00000000E+00  0.00000000E+00
  0.00000000E+00  0.00000000E+00  0.00000000E+00
  0.00000000E+00  0.00000000E+00  0.00000000E+00
  0.00000000E+00  0.00000000E+00  0.00000000E+00
  0.00000000E+00  0.00000000E+00  0.00000000E+00
  0.00000000E+00  0.00000000E+00  0.00000000E+00
  0.00000000E+00  0.00000000E+00  0.00000000E+00
