generated by phonopy                    
  0.999899323197855     
    28.4279265297372099   -0.0000000000000000    0.0000000000000000
     0.0000000000000000    5.2522608631807124    0.0000000000000001
    -0.0000000000000000   -2.6261304315903562    4.5485913348172886
   Co   Ru
    32    24
Direct
  0.0411636187021242  0.3333333333333286  0.1666666666666714
  0.0411636187021242  0.3333333333333286  0.6666666666666714
  0.0411636187021242  0.8333333333333286  0.1666666666666714
  0.0411636187021242  0.8333333333333286  0.6666666666666714
  0.1088697035323717  0.1666666666666714  0.3333333333333286
  0.1088697035323717  0.1666666666666714  0.8333333333333286
  0.1088697035323717  0.6666666666666714  0.3333333333333286
  0.1088697035323717  0.6666666666666714  0.8333333333333286
  0.1768473880613033  0.3333333333333286  0.1666666666666714
  0.1768473880613033  0.3333333333333286  0.6666666666666714
  0.1768473880613033  0.8333333333333286  0.1666666666666714
  0.1768473880613033  0.8333333333333286  0.6666666666666714
  0.2445511502848818  0.1666666666666714  0.3333333333333286
  0.2445511502848818  0.1666666666666714  0.8333333333333286
  0.2445511502848818  0.6666666666666714  0.3333333333333286
  0.2445511502848818  0.6666666666666714  0.8333333333333286
  0.5411636187021244  0.1666666666666714  0.3333333333333286
  0.5411636187021244  0.1666666666666714  0.8333333333333286
  0.5411636187021244  0.6666666666666714  0.3333333333333286
  0.5411636187021244  0.6666666666666714  0.8333333333333286
  0.6088697035323717  0.3333333333333286  0.1666666666666714
  0.6088697035323717  0.3333333333333286  0.6666666666666714
  0.6088697035323717  0.8333333333333286  0.1666666666666714
  0.6088697035323717  0.8333333333333286  0.6666666666666714
  0.6768473880613103  0.1666666666666714  0.3333333333333286
  0.6768473880613103  0.1666666666666714  0.8333333333333286
  0.6768473880613103  0.6666666666666714  0.3333333333333286
  0.6768473880613103  0.6666666666666714  0.8333333333333286
  0.7445511502848888  0.3333333333333286  0.1666666666666714
  0.7445511502848888  0.3333333333333286  0.6666666666666714
  0.7445511502848888  0.8333333333333286  0.1666666666666714
  0.7445511502848888  0.8333333333333286  0.6666666666666714
  0.3173005135361765  0.3333333333333286  0.1666666666666714
  0.3173005135361765  0.3333333333333286  0.6666666666666714
  0.3173005135361765  0.8333333333333286  0.1666666666666714
  0.3173005135361765  0.8333333333333286  0.6666666666666714
  0.3928558617283926  0.1666666666666714  0.3333333333333286
  0.3928558617283926  0.1666666666666714  0.8333333333333286
  0.3928558617283926  0.6666666666666714  0.3333333333333286
  0.3928558617283926  0.6666666666666714  0.8333333333333286
  0.4684117641547642  0.3333333333333286  0.1666666666666714
  0.4684117641547642  0.3333333333333286  0.6666666666666714
  0.4684117641547642  0.8333333333333286  0.1666666666666714
  0.4684117641547642  0.8333333333333286  0.6666666666666714
  0.8173005135361764  0.1666666666666714  0.3333333333333286
  0.8173005135361764  0.1666666666666714  0.8333333333333286
  0.8173005135361764  0.6666666666666714  0.3333333333333286
  0.8173005135361764  0.6666666666666714  0.8333333333333286
  0.8928558617283926  0.3333333333333286  0.1666666666666714
  0.8928558617283926  0.3333333333333286  0.6666666666666714
  0.8928558617283926  0.8333333333333286  0.1666666666666714
  0.8928558617283926  0.8333333333333286  0.6666666666666714
  0.9684117641547643  0.1666666666666714  0.3333333333333286
  0.9684117641547643  0.1666666666666714  0.8333333333333286
  0.9684117641547643  0.6666666666666714  0.3333333333333286
  0.9684117641547643  0.6666666666666714  0.8333333333333286
 
  0.00000000E+00  0.00000000E+00  0.00000000E+00
  0.00000000E+00  0.00000000E+00  0.00000000E+00
  0.00000000E+00  0.00000000E+00  0.00000000E+00
  0.00000000E+00  0.00000000E+00  0.00000000E+00
  0.00000000E+00  0.00000000E+00  0.00000000E+00
  0.00000000E+00  0.00000000E+00  0.00000000E+00
  0.00000000E+00  0.00000000E+00  0.00000000E+00
  0.00000000E+00  0.00000000E+00  0.00000000E+00
  0.00000000E+00  0.00000000E+00  0.00000000E+00
  0.00000000E+00  0.00000000E+00  0.00000000E+00
  0.00000000E+00  0.00000000E+00  0.00000000E+00
  0.00000000E+00  0.00000000E+00  0.00000000E+00
  0.00000000E+00  0.00000000E+00  0.00000000E+00
  0.00000000E+00  0.00000000E+00  0.00000000E+00
  0.00000000E+00  0.00000000E+00  0.00000000E+00
  0.00000000E+00  0.00000000E+00  0.00000000E+00
  0.00000000E+00  0.00000000E+00  0.00000000E+00
  0.00000000E+00  0.00000000E+00  0.00000000E+00
  0.00000000E+00  0.00000000E+00  0.00000000E+00
  0.00000000E+00  0.00000000E+00  0.00000000E+00
  0.00000000E+00  0.00000000E+00  0.00000000E+00
  0.00000000E+00  0.00000000E+00  0.00000000E+00
  0.00000000E+00  0.00000000E+00  0.00000000E+00
  0.00000000E+00  0.00000000E+00  0.00000000E+00
  0.00000000E+00  0.00000000E+00  0.00000000E+00
  0.00000000E+00  0.00000000E+00  0.00000000E+00
  0.00000000E+00  0.00000000E+00  0.00000000E+00
  0.00000000E+00  0.00000000E+00  0.00000000E+00
  0.00000000E+00  0.00000000E+00  0.00000000E+00
  0.00000000E+00  0.00000000E+00  0.00000000E+00
  0.00000000E+00  0.00000000E+00  0.00000000E+00
  0.00000000E+00  0.00000000E+00  0.00000000E+00
  0.00000000E+00  0.00000000E+00  0.00000000E+00
  0.00000000E+00  0.00000000E+00  0.00000000E+00
  0.00000000E+00  0.00000000E+00  0.00000000E+00
  0.00000000E+00  0.00000000E+00  0.00000000E+00
  0.00000000E+00  0.00000000E+00  0.00000000E+00
  0.00000000E+00  0.00000000E+00  0.00000000E+00
  0.00000000E+00  0.00000000E+00  0.00000000E+00
  0.00000000E+00  0.00000000E+00  0.00000000E+00
  0.00000000E+00  0.00000000E+00  0.00000000E+00
  0.00000000E+00  0.00000000E+00  0.00000000E+00
  0.00000000E+00  0.00000000E+00  0.00000000E+00
  0.00000000E+00  0.00000000E+00  0.00000000E+00
  0.00000000E+00  0.00000000E+00  0.00000000E+00
  0.00000000E+00  0.00000000E+00  0.00000000E+00
  0.00000000E+00  0.00000000E+00  0.00000000E+00
  0.00000000E+00  0.00000000E+00  0.00000000E+00
  0.00000000E+00  0.00000000E+00  0.00000000E+00
  0.00000000E+00  0.00000000E+00  0.00000000E+00
  0.00000000E+00  0.00000000E+00  0.00000000E+00
  0.00000000E+00  0.00000000E+00  0.00000000E+00
  0.00000000E+00  0.00000000E+00  0.00000000E+00
  0.00000000E+00  0.00000000E+00  0.00000000E+00
  0.00000000E+00  0.00000000E+00  0.00000000E+00
  0.00000000E+00  0.00000000E+00  0.00000000E+00
