generated by phonopy                    
   1.00328883835111     
    28.4334263157472620   -0.0000000000000000    0.0000000000000000
     0.0000000000000000    5.2517528746696343   -0.0000000000000000
    -0.0000000000000000   -2.6258764373348171    4.5481514038618611
   Co   Ru
    32    24
Direct
  0.0410290900786695  0.3333333333333286  0.1666666666666714
  0.0410290900786695  0.3333333333333286  0.6666666666666714
  0.0410290900786695  0.8333333333333286  0.1666666666666714
  0.0410290900786695  0.8333333333333286  0.6666666666666714
  0.1088182127582442  0.1666666666666714  0.3333333333333286
  0.1088182127582442  0.1666666666666714  0.8333333333333286
  0.1088182127582442  0.6666666666666714  0.3333333333333286
  0.1088182127582442  0.6666666666666714  0.8333333333333286
  0.1768988788354342  0.3333333333333286  0.1666666666666714
  0.1768988788354342  0.3333333333333286  0.6666666666666714
  0.1768988788354342  0.8333333333333286  0.1666666666666714
  0.1768988788354342  0.8333333333333286  0.6666666666666714
  0.2446856789083367  0.1666666666666714  0.3333333333333286
  0.2446856789083367  0.1666666666666714  0.8333333333333286
  0.2446856789083367  0.6666666666666714  0.3333333333333286
  0.2446856789083367  0.6666666666666714  0.8333333333333286
  0.5410290900786696  0.1666666666666714  0.3333333333333286
  0.5410290900786696  0.1666666666666714  0.8333333333333286
  0.5410290900786696  0.6666666666666714  0.3333333333333286
  0.5410290900786696  0.6666666666666714  0.8333333333333286
  0.6088182127582441  0.3333333333333286  0.1666666666666714
  0.6088182127582441  0.3333333333333286  0.6666666666666714
  0.6088182127582441  0.8333333333333286  0.1666666666666714
  0.6088182127582441  0.8333333333333286  0.6666666666666714
  0.6768988788354345  0.1666666666666714  0.3333333333333286
  0.6768988788354345  0.1666666666666714  0.8333333333333286
  0.6768988788354345  0.6666666666666714  0.3333333333333286
  0.6768988788354345  0.6666666666666714  0.8333333333333286
  0.7446856789083437  0.3333333333333286  0.1666666666666714
  0.7446856789083437  0.3333333333333286  0.6666666666666714
  0.7446856789083437  0.8333333333333286  0.1666666666666714
  0.7446856789083437  0.8333333333333286  0.6666666666666714
  0.3174557605757089  0.3333333333333286  0.1666666666666714
  0.3174557605757089  0.3333333333333286  0.6666666666666714
  0.3174557605757089  0.8333333333333286  0.1666666666666714
  0.3174557605757089  0.8333333333333286  0.6666666666666714
  0.3928558617283943  0.1666666666666714  0.3333333333333286
  0.3928558617283943  0.1666666666666714  0.8333333333333286
  0.3928558617283943  0.6666666666666714  0.3333333333333286
  0.3928558617283943  0.6666666666666714  0.8333333333333286
  0.4682565171152264  0.3333333333333286  0.1666666666666714
  0.4682565171152264  0.3333333333333286  0.6666666666666714
  0.4682565171152264  0.8333333333333286  0.1666666666666714
  0.4682565171152264  0.8333333333333286  0.6666666666666714
  0.8174557605757089  0.1666666666666714  0.3333333333333286
  0.8174557605757089  0.1666666666666714  0.8333333333333286
  0.8174557605757089  0.6666666666666714  0.3333333333333286
  0.8174557605757089  0.6666666666666714  0.8333333333333286
  0.8928558617283942  0.3333333333333286  0.1666666666666714
  0.8928558617283942  0.3333333333333286  0.6666666666666714
  0.8928558617283942  0.8333333333333286  0.1666666666666714
  0.8928558617283942  0.8333333333333286  0.6666666666666714
  0.9682565171152262  0.1666666666666714  0.3333333333333286
  0.9682565171152262  0.1666666666666714  0.8333333333333286
  0.9682565171152262  0.6666666666666714  0.3333333333333286
  0.9682565171152262  0.6666666666666714  0.8333333333333286
 
  0.00000000E+00  0.00000000E+00  0.00000000E+00
  0.00000000E+00  0.00000000E+00  0.00000000E+00
  0.00000000E+00  0.00000000E+00  0.00000000E+00
  0.00000000E+00  0.00000000E+00  0.00000000E+00
  0.00000000E+00  0.00000000E+00  0.00000000E+00
  0.00000000E+00  0.00000000E+00  0.00000000E+00
  0.00000000E+00  0.00000000E+00  0.00000000E+00
  0.00000000E+00  0.00000000E+00  0.00000000E+00
  0.00000000E+00  0.00000000E+00  0.00000000E+00
  0.00000000E+00  0.00000000E+00  0.00000000E+00
  0.00000000E+00  0.00000000E+00  0.00000000E+00
  0.00000000E+00  0.00000000E+00  0.00000000E+00
  0.00000000E+00  0.00000000E+00  0.00000000E+00
  0.00000000E+00  0.00000000E+00  0.00000000E+00
  0.00000000E+00  0.00000000E+00  0.00000000E+00
  0.00000000E+00  0.00000000E+00  0.00000000E+00
  0.00000000E+00  0.00000000E+00  0.00000000E+00
  0.00000000E+00  0.00000000E+00  0.00000000E+00
  0.00000000E+00  0.00000000E+00  0.00000000E+00
  0.00000000E+00  0.00000000E+00  0.00000000E+00
  0.00000000E+00  0.00000000E+00  0.00000000E+00
  0.00000000E+00  0.00000000E+00  0.00000000E+00
  0.00000000E+00  0.00000000E+00  0.00000000E+00
  0.00000000E+00  0.00000000E+00  0.00000000E+00
  0.00000000E+00  0.00000000E+00  0.00000000E+00
  0.00000000E+00  0.00000000E+00  0.00000000E+00
  0.00000000E+00  0.00000000E+00  0.00000000E+00
  0.00000000E+00  0.00000000E+00  0.00000000E+00
  0.00000000E+00  0.00000000E+00  0.00000000E+00
  0.00000000E+00  0.00000000E+00  0.00000000E+00
  0.00000000E+00  0.00000000E+00  0.00000000E+00
  0.00000000E+00  0.00000000E+00  0.00000000E+00
  0.00000000E+00  0.00000000E+00  0.00000000E+00
  0.00000000E+00  0.00000000E+00  0.00000000E+00
  0.00000000E+00  0.00000000E+00  0.00000000E+00
  0.00000000E+00  0.00000000E+00  0.00000000E+00
  0.00000000E+00  0.00000000E+00  0.00000000E+00
  0.00000000E+00  0.00000000E+00  0.00000000E+00
  0.00000000E+00  0.00000000E+00  0.00000000E+00
  0.00000000E+00  0.00000000E+00  0.00000000E+00
  0.00000000E+00  0.00000000E+00  0.00000000E+00
  0.00000000E+00  0.00000000E+00  0.00000000E+00
  0.00000000E+00  0.00000000E+00  0.00000000E+00
  0.00000000E+00  0.00000000E+00  0.00000000E+00
  0.00000000E+00  0.00000000E+00  0.00000000E+00
  0.00000000E+00  0.00000000E+00  0.00000000E+00
  0.00000000E+00  0.00000000E+00  0.00000000E+00
  0.00000000E+00  0.00000000E+00  0.00000000E+00
  0.00000000E+00  0.00000000E+00  0.00000000E+00
  0.00000000E+00  0.00000000E+00  0.00000000E+00
  0.00000000E+00  0.00000000E+00  0.00000000E+00
  0.00000000E+00  0.00000000E+00  0.00000000E+00
  0.00000000E+00  0.00000000E+00  0.00000000E+00
  0.00000000E+00  0.00000000E+00  0.00000000E+00
  0.00000000E+00  0.00000000E+00  0.00000000E+00
  0.00000000E+00  0.00000000E+00  0.00000000E+00
