generated by phonopy                    
    1.014665960997497     
    51.6793518489489898   -0.0000000000000000   -0.0000000000000000
     0.0000000000000000    5.0906242213517610    0.0000000000000001
     0.0000000000000000   -2.5453121106758818    4.4086098968109964
   Co   Ru
    80    24
Direct
  0.0238194753256862  0.3333333333333286  0.1666666666666714
  0.0238194753256862  0.3333333333333286  0.6666666666666714
  0.0238194753256862  0.8333333333333286  0.1666666666666714
  0.0238194753256862  0.8333333333333286  0.6666666666666714
  0.0611063314225132  0.1666666666666714  0.3333333333333286
  0.0611063314225132  0.1666666666666714  0.8333333333333286
  0.0611063314225132  0.6666666666666714  0.3333333333333286
  0.0611063314225132  0.6666666666666714  0.8333333333333286
  0.0985872137700350  0.3333333333333286  0.1666666666666714
  0.0985872137700350  0.3333333333333286  0.6666666666666714
  0.0985872137700350  0.8333333333333286  0.1666666666666714
  0.0985872137700350  0.8333333333333286  0.6666666666666714
  0.1360817536838737  0.1666666666666714  0.3333333333333286
  0.1360817536838737  0.1666666666666714  0.8333333333333286
  0.1360817536838737  0.6666666666666714  0.3333333333333286
  0.1360817536838737  0.6666666666666714  0.8333333333333286
  0.1735656633914437  0.3333333333333286  0.1666666666666714
  0.1735656633914437  0.3333333333333286  0.6666666666666714
  0.1735656633914437  0.8333333333333286  0.1666666666666714
  0.1735656633914437  0.8333333333333286  0.6666666666666714
  0.2110777045667788  0.1666666666666714  0.3333333333333286
  0.2110777045667788  0.1666666666666714  0.8333333333333286
  0.2110777045667788  0.6666666666666714  0.3333333333333286
  0.2110777045667788  0.6666666666666714  0.8333333333333286
  0.2485570524171889  0.3333333333333286  0.1666666666666714
  0.2485570524171889  0.3333333333333286  0.6666666666666714
  0.2485570524171889  0.8333333333333286  0.1666666666666714
  0.2485570524171889  0.8333333333333286  0.6666666666666714
  0.2860376605950300  0.1666666666666714  0.3333333333333286
  0.2860376605950300  0.1666666666666714  0.8333333333333286
  0.2860376605950300  0.6666666666666714  0.3333333333333286
  0.2860376605950300  0.6666666666666714  0.8333333333333286
  0.3235037142270960  0.3333333333333286  0.1666666666666714
  0.3235037142270960  0.3333333333333286  0.6666666666666714
  0.3235037142270960  0.8333333333333286  0.1666666666666714
  0.3235037142270960  0.8333333333333286  0.6666666666666714
  0.3607794481280128  0.1666666666666714  0.3333333333333286
  0.3607794481280128  0.1666666666666714  0.8333333333333286
  0.3607794481280128  0.6666666666666714  0.3333333333333286
  0.3607794481280128  0.6666666666666714  0.8333333333333286
  0.5238194753256861  0.1666666666666714  0.3333333333333286
  0.5238194753256861  0.1666666666666714  0.8333333333333286
  0.5238194753256861  0.6666666666666714  0.3333333333333286
  0.5238194753256861  0.6666666666666714  0.8333333333333286
  0.5611063314225132  0.3333333333333286  0.1666666666666714
  0.5611063314225132  0.3333333333333286  0.6666666666666714
  0.5611063314225132  0.8333333333333286  0.1666666666666714
  0.5611063314225132  0.8333333333333286  0.6666666666666714
  0.5985872137700274  0.1666666666666714  0.3333333333333286
  0.5985872137700274  0.1666666666666714  0.8333333333333286
  0.5985872137700274  0.6666666666666714  0.3333333333333286
  0.5985872137700274  0.6666666666666714  0.8333333333333286
  0.6360817536838668  0.3333333333333286  0.1666666666666714
  0.6360817536838668  0.3333333333333286  0.6666666666666714
  0.6360817536838668  0.8333333333333286  0.1666666666666714
  0.6360817536838668  0.8333333333333286  0.6666666666666714
  0.6735656633914364  0.1666666666666714  0.3333333333333286
  0.6735656633914364  0.1666666666666714  0.8333333333333286
  0.6735656633914364  0.6666666666666714  0.3333333333333286
  0.6735656633914364  0.6666666666666714  0.8333333333333286
  0.7110777045667787  0.3333333333333286  0.1666666666666714
  0.7110777045667787  0.3333333333333286  0.6666666666666714
  0.7110777045667787  0.8333333333333286  0.1666666666666714
  0.7110777045667787  0.8333333333333286  0.6666666666666714
  0.7485570524171959  0.1666666666666714  0.3333333333333286
  0.7485570524171959  0.1666666666666714  0.8333333333333286
  0.7485570524171959  0.6666666666666714  0.3333333333333286
  0.7485570524171959  0.6666666666666714  0.8333333333333286
  0.7860376605950302  0.3333333333333286  0.1666666666666714
  0.7860376605950302  0.3333333333333286  0.6666666666666714
  0.7860376605950302  0.8333333333333286  0.1666666666666714
  0.7860376605950302  0.8333333333333286  0.6666666666666714
  0.8235037142270967  0.1666666666666714  0.3333333333333286
  0.8235037142270967  0.1666666666666714  0.8333333333333286
  0.8235037142270967  0.6666666666666714  0.3333333333333286
  0.8235037142270967  0.6666666666666714  0.8333333333333286
  0.8607794481280134  0.3333333333333286  0.1666666666666714
  0.8607794481280134  0.3333333333333286  0.6666666666666714
  0.8607794481280134  0.8333333333333286  0.1666666666666714
  0.8607794481280134  0.8333333333333286  0.6666666666666714
  0.4008398259170725  0.3333333333333286  0.1666666666666714
  0.4008398259170725  0.3333333333333286  0.6666666666666714
  0.4008398259170725  0.8333333333333286  0.1666666666666714
  0.4008398259170725  0.8333333333333286  0.6666666666666714
  0.4422944398989285  0.1666666666666714  0.3333333333333286
  0.4422944398989285  0.1666666666666714  0.8333333333333286
  0.4422944398989285  0.6666666666666714  0.3333333333333286
  0.4422944398989285  0.6666666666666714  0.8333333333333286
  0.4837497166563476  0.3333333333333286  0.1666666666666714
  0.4837497166563476  0.3333333333333286  0.6666666666666714
  0.4837497166563476  0.8333333333333286  0.1666666666666714
  0.4837497166563476  0.8333333333333286  0.6666666666666714
  0.9008398259170721  0.1666666666666714  0.3333333333333286
  0.9008398259170721  0.1666666666666714  0.8333333333333286
  0.9008398259170721  0.6666666666666714  0.3333333333333286
  0.9008398259170721  0.6666666666666714  0.8333333333333286
  0.9422944398989282  0.3333333333333286  0.1666666666666714
  0.9422944398989282  0.3333333333333286  0.6666666666666714
  0.9422944398989282  0.8333333333333286  0.1666666666666714
  0.9422944398989282  0.8333333333333286  0.6666666666666714
  0.9837497166563471  0.1666666666666714  0.3333333333333286
  0.9837497166563471  0.1666666666666714  0.8333333333333286
  0.9837497166563471  0.6666666666666714  0.3333333333333286
  0.9837497166563471  0.6666666666666714  0.8333333333333286
 
  0.00000000E+00  0.00000000E+00  0.00000000E+00
  0.00000000E+00  0.00000000E+00  0.00000000E+00
  0.00000000E+00  0.00000000E+00  0.00000000E+00
  0.00000000E+00  0.00000000E+00  0.00000000E+00
  0.00000000E+00  0.00000000E+00  0.00000000E+00
  0.00000000E+00  0.00000000E+00  0.00000000E+00
  0.00000000E+00  0.00000000E+00  0.00000000E+00
  0.00000000E+00  0.00000000E+00  0.00000000E+00
  0.00000000E+00  0.00000000E+00  0.00000000E+00
  0.00000000E+00  0.00000000E+00  0.00000000E+00
  0.00000000E+00  0.00000000E+00  0.00000000E+00
  0.00000000E+00  0.00000000E+00  0.00000000E+00
  0.00000000E+00  0.00000000E+00  0.00000000E+00
  0.00000000E+00  0.00000000E+00  0.00000000E+00
  0.00000000E+00  0.00000000E+00  0.00000000E+00
  0.00000000E+00  0.00000000E+00  0.00000000E+00
  0.00000000E+00  0.00000000E+00  0.00000000E+00
  0.00000000E+00  0.00000000E+00  0.00000000E+00
  0.00000000E+00  0.00000000E+00  0.00000000E+00
  0.00000000E+00  0.00000000E+00  0.00000000E+00
  0.00000000E+00  0.00000000E+00  0.00000000E+00
  0.00000000E+00  0.00000000E+00  0.00000000E+00
  0.00000000E+00  0.00000000E+00  0.00000000E+00
  0.00000000E+00  0.00000000E+00  0.00000000E+00
  0.00000000E+00  0.00000000E+00  0.00000000E+00
  0.00000000E+00  0.00000000E+00  0.00000000E+00
  0.00000000E+00  0.00000000E+00  0.00000000E+00
  0.00000000E+00  0.00000000E+00  0.00000000E+00
  0.00000000E+00  0.00000000E+00  0.00000000E+00
  0.00000000E+00  0.00000000E+00  0.00000000E+00
  0.00000000E+00  0.00000000E+00  0.00000000E+00
  0.00000000E+00  0.00000000E+00  0.00000000E+00
  0.00000000E+00  0.00000000E+00  0.00000000E+00
  0.00000000E+00  0.00000000E+00  0.00000000E+00
  0.00000000E+00  0.00000000E+00  0.00000000E+00
  0.00000000E+00  0.00000000E+00  0.00000000E+00
  0.00000000E+00  0.00000000E+00  0.00000000E+00
  0.00000000E+00  0.00000000E+00  0.00000000E+00
  0.00000000E+00  0.00000000E+00  0.00000000E+00
  0.00000000E+00  0.00000000E+00  0.00000000E+00
  0.00000000E+00  0.00000000E+00  0.00000000E+00
  0.00000000E+00  0.00000000E+00  0.00000000E+00
  0.00000000E+00  0.00000000E+00  0.00000000E+00
  0.00000000E+00  0.00000000E+00  0.00000000E+00
  0.00000000E+00  0.00000000E+00  0.00000000E+00
  0.00000000E+00  0.00000000E+00  0.00000000E+00
  0.00000000E+00  0.00000000E+00  0.00000000E+00
  0.00000000E+00  0.00000000E+00  0.00000000E+00
  0.00000000E+00  0.00000000E+00  0.00000000E+00
  0.00000000E+00  0.00000000E+00  0.00000000E+00
  0.00000000E+00  0.00000000E+00  0.00000000E+00
  0.00000000E+00  0.00000000E+00  0.00000000E+00
  0.00000000E+00  0.00000000E+00  0.00000000E+00
  0.00000000E+00  0.00000000E+00  0.00000000E+00
  0.00000000E+00  0.00000000E+00  0.00000000E+00
  0.00000000E+00  0.00000000E+00  0.00000000E+00
  0.00000000E+00  0.00000000E+00  0.00000000E+00
  0.00000000E+00  0.00000000E+00  0.00000000E+00
  0.00000000E+00  0.00000000E+00  0.00000000E+00
  0.00000000E+00  0.00000000E+00  0.00000000E+00
  0.00000000E+00  0.00000000E+00  0.00000000E+00
  0.00000000E+00  0.00000000E+00  0.00000000E+00
  0.00000000E+00  0.00000000E+00  0.00000000E+00
  0.00000000E+00  0.00000000E+00  0.00000000E+00
  0.00000000E+00  0.00000000E+00  0.00000000E+00
  0.00000000E+00  0.00000000E+00  0.00000000E+00
  0.00000000E+00  0.00000000E+00  0.00000000E+00
  0.00000000E+00  0.00000000E+00  0.00000000E+00
  0.00000000E+00  0.00000000E+00  0.00000000E+00
  0.00000000E+00  0.00000000E+00  0.00000000E+00
  0.00000000E+00  0.00000000E+00  0.00000000E+00
  0.00000000E+00  0.00000000E+00  0.00000000E+00
  0.00000000E+00  0.00000000E+00  0.00000000E+00
  0.00000000E+00  0.00000000E+00  0.00000000E+00
  0.00000000E+00  0.00000000E+00  0.00000000E+00
  0.00000000E+00  0.00000000E+00  0.00000000E+00
  0.00000000E+00  0.00000000E+00  0.00000000E+00
  0.00000000E+00  0.00000000E+00  0.00000000E+00
  0.00000000E+00  0.00000000E+00  0.00000000E+00
  0.00000000E+00  0.00000000E+00  0.00000000E+00
  0.00000000E+00  0.00000000E+00  0.00000000E+00
  0.00000000E+00  0.00000000E+00  0.00000000E+00
  0.00000000E+00  0.00000000E+00  0.00000000E+00
  0.00000000E+00  0.00000000E+00  0.00000000E+00
  0.00000000E+00  0.00000000E+00  0.00000000E+00
  0.00000000E+00  0.00000000E+00  0.00000000E+00
  0.00000000E+00  0.00000000E+00  0.00000000E+00
  0.00000000E+00  0.00000000E+00  0.00000000E+00
  0.00000000E+00  0.00000000E+00  0.00000000E+00
  0.00000000E+00  0.00000000E+00  0.00000000E+00
  0.00000000E+00  0.00000000E+00  0.00000000E+00
  0.00000000E+00  0.00000000E+00  0.00000000E+00
  0.00000000E+00  0.00000000E+00  0.00000000E+00
  0.00000000E+00  0.00000000E+00  0.00000000E+00
  0.00000000E+00  0.00000000E+00  0.00000000E+00
  0.00000000E+00  0.00000000E+00  0.00000000E+00
  0.00000000E+00  0.00000000E+00  0.00000000E+00
  0.00000000E+00  0.00000000E+00  0.00000000E+00
  0.00000000E+00  0.00000000E+00  0.00000000E+00
  0.00000000E+00  0.00000000E+00  0.00000000E+00
  0.00000000E+00  0.00000000E+00  0.00000000E+00
  0.00000000E+00  0.00000000E+00  0.00000000E+00
  0.00000000E+00  0.00000000E+00  0.00000000E+00
  0.00000000E+00  0.00000000E+00  0.00000000E+00
