generated by phonopy                    
   1.00665701226925     
    48.3409358301504568    0.0000000000000000    0.0000000000000000
     0.0000000000000000    5.1170867094735391    0.0000000000000000
     0.0000000000000000   -2.5585433547367695    4.4315270837718126
   Co   Ru
    80    16
Direct
  0.0244682527247733  0.3333333333333286  0.1666666666666714
  0.0244682527247733  0.3333333333333286  0.6666666666666714
  0.0244682527247733  0.8333333333333286  0.1666666666666714
  0.0244682527247733  0.8333333333333286  0.6666666666666714
  0.0651595757861614  0.1666666666666714  0.3333333333333286
  0.0651595757861614  0.1666666666666714  0.8333333333333286
  0.0651595757861614  0.6666666666666714  0.3333333333333286
  0.0651595757861614  0.6666666666666714  0.8333333333333286
  0.1060965756167107  0.3333333333333286  0.1666666666666714
  0.1060965756167107  0.3333333333333286  0.6666666666666714
  0.1060965756167107  0.8333333333333286  0.1666666666666714
  0.1060965756167107  0.8333333333333286  0.6666666666666714
  0.1469780489030867  0.1666666666666714  0.3333333333333286
  0.1469780489030867  0.1666666666666714  0.8333333333333286
  0.1469780489030867  0.6666666666666714  0.3333333333333286
  0.1469780489030867  0.6666666666666714  0.8333333333333286
  0.1878988826745100  0.3333333333333286  0.1666666666666714
  0.1878988826745100  0.3333333333333286  0.6666666666666714
  0.1878988826745100  0.8333333333333286  0.1666666666666714
  0.1878988826745100  0.8333333333333286  0.6666666666666714
  0.2287696784654401  0.1666666666666714  0.3333333333333286
  0.2287696784654401  0.1666666666666714  0.8333333333333286
  0.2287696784654401  0.6666666666666714  0.3333333333333286
  0.2287696784654401  0.6666666666666714  0.8333333333333286
  0.2696886672546270  0.3333333333333286  0.1666666666666714
  0.2696886672546270  0.3333333333333286  0.6666666666666714
  0.2696886672546270  0.8333333333333286  0.1666666666666714
  0.2696886672546270  0.8333333333333286  0.6666666666666714
  0.3105682455030134  0.1666666666666714  0.3333333333333286
  0.3105682455030134  0.1666666666666714  0.8333333333333286
  0.3105682455030134  0.6666666666666714  0.3333333333333286
  0.3105682455030134  0.6666666666666714  0.8333333333333286
  0.3515053365380538  0.3333333333333286  0.1666666666666714
  0.3515053365380538  0.3333333333333286  0.6666666666666714
  0.3515053365380538  0.8333333333333286  0.1666666666666714
  0.3515053365380538  0.8333333333333286  0.6666666666666714
  0.3921983263013900  0.1666666666666714  0.3333333333333286
  0.3921983263013900  0.1666666666666714  0.8333333333333286
  0.3921983263013900  0.6666666666666714  0.3333333333333286
  0.3921983263013900  0.6666666666666714  0.8333333333333286
  0.5244682527247733  0.3333333333333286  0.1666666666666714
  0.5244682527247733  0.3333333333333286  0.6666666666666714
  0.5244682527247733  0.8333333333333286  0.1666666666666714
  0.5244682527247733  0.8333333333333286  0.6666666666666714
  0.5651595757861614  0.1666666666666714  0.3333333333333286
  0.5651595757861614  0.1666666666666714  0.8333333333333286
  0.5651595757861614  0.6666666666666714  0.3333333333333286
  0.5651595757861614  0.6666666666666714  0.8333333333333286
  0.6060965756167178  0.3333333333333286  0.1666666666666714
  0.6060965756167178  0.3333333333333286  0.6666666666666714
  0.6060965756167178  0.8333333333333286  0.1666666666666714
  0.6060965756167178  0.8333333333333286  0.6666666666666714
  0.6469780489030867  0.1666666666666714  0.3333333333333286
  0.6469780489030867  0.1666666666666714  0.8333333333333286
  0.6469780489030867  0.6666666666666714  0.3333333333333286
  0.6469780489030867  0.6666666666666714  0.8333333333333286
  0.6878988826745172  0.3333333333333286  0.1666666666666714
  0.6878988826745172  0.3333333333333286  0.6666666666666714
  0.6878988826745172  0.8333333333333286  0.1666666666666714
  0.6878988826745172  0.8333333333333286  0.6666666666666714
  0.7287696784654401  0.1666666666666714  0.3333333333333286
  0.7287696784654401  0.1666666666666714  0.8333333333333286
  0.7287696784654401  0.6666666666666714  0.3333333333333286
  0.7287696784654401  0.6666666666666714  0.8333333333333286
  0.7696886672546199  0.3333333333333286  0.1666666666666714
  0.7696886672546199  0.3333333333333286  0.6666666666666714
  0.7696886672546199  0.8333333333333286  0.1666666666666714
  0.7696886672546199  0.8333333333333286  0.6666666666666714
  0.8105682455030134  0.1666666666666714  0.3333333333333286
  0.8105682455030134  0.1666666666666714  0.8333333333333286
  0.8105682455030134  0.6666666666666714  0.3333333333333286
  0.8105682455030134  0.6666666666666714  0.8333333333333286
  0.8515053365380538  0.3333333333333286  0.1666666666666714
  0.8515053365380538  0.3333333333333286  0.6666666666666714
  0.8515053365380538  0.8333333333333286  0.1666666666666714
  0.8515053365380538  0.8333333333333286  0.6666666666666714
  0.8921983263013828  0.1666666666666714  0.3333333333333286
  0.8921983263013828  0.1666666666666714  0.8333333333333286
  0.8921983263013828  0.6666666666666714  0.3333333333333286
  0.8921983263013828  0.6666666666666714  0.8333333333333286
  0.4357762494783799  0.3333333333333286  0.1666666666666714
  0.4357762494783799  0.3333333333333286  0.6666666666666714
  0.4357762494783799  0.8333333333333286  0.1666666666666714
  0.4357762494783799  0.8333333333333286  0.6666666666666714
  0.4808921607538608  0.1666666666666714  0.3333333333333286
  0.4808921607538608  0.1666666666666714  0.8333333333333286
  0.4808921607538608  0.6666666666666714  0.3333333333333286
  0.4808921607538608  0.6666666666666714  0.8333333333333286
  0.9357762494783799  0.3333333333333286  0.1666666666666714
  0.9357762494783799  0.3333333333333286  0.6666666666666714
  0.9357762494783799  0.8333333333333286  0.1666666666666714
  0.9357762494783799  0.8333333333333286  0.6666666666666714
  0.9808921607538608  0.1666666666666714  0.3333333333333286
  0.9808921607538608  0.1666666666666714  0.8333333333333286
  0.9808921607538608  0.6666666666666714  0.3333333333333286
  0.9808921607538608  0.6666666666666714  0.8333333333333286
 
  0.00000000E+00  0.00000000E+00  0.00000000E+00
  0.00000000E+00  0.00000000E+00  0.00000000E+00
  0.00000000E+00  0.00000000E+00  0.00000000E+00
  0.00000000E+00  0.00000000E+00  0.00000000E+00
  0.00000000E+00  0.00000000E+00  0.00000000E+00
  0.00000000E+00  0.00000000E+00  0.00000000E+00
  0.00000000E+00  0.00000000E+00  0.00000000E+00
  0.00000000E+00  0.00000000E+00  0.00000000E+00
  0.00000000E+00  0.00000000E+00  0.00000000E+00
  0.00000000E+00  0.00000000E+00  0.00000000E+00
  0.00000000E+00  0.00000000E+00  0.00000000E+00
  0.00000000E+00  0.00000000E+00  0.00000000E+00
  0.00000000E+00  0.00000000E+00  0.00000000E+00
  0.00000000E+00  0.00000000E+00  0.00000000E+00
  0.00000000E+00  0.00000000E+00  0.00000000E+00
  0.00000000E+00  0.00000000E+00  0.00000000E+00
  0.00000000E+00  0.00000000E+00  0.00000000E+00
  0.00000000E+00  0.00000000E+00  0.00000000E+00
  0.00000000E+00  0.00000000E+00  0.00000000E+00
  0.00000000E+00  0.00000000E+00  0.00000000E+00
  0.00000000E+00  0.00000000E+00  0.00000000E+00
  0.00000000E+00  0.00000000E+00  0.00000000E+00
  0.00000000E+00  0.00000000E+00  0.00000000E+00
  0.00000000E+00  0.00000000E+00  0.00000000E+00
  0.00000000E+00  0.00000000E+00  0.00000000E+00
  0.00000000E+00  0.00000000E+00  0.00000000E+00
  0.00000000E+00  0.00000000E+00  0.00000000E+00
  0.00000000E+00  0.00000000E+00  0.00000000E+00
  0.00000000E+00  0.00000000E+00  0.00000000E+00
  0.00000000E+00  0.00000000E+00  0.00000000E+00
  0.00000000E+00  0.00000000E+00  0.00000000E+00
  0.00000000E+00  0.00000000E+00  0.00000000E+00
  0.00000000E+00  0.00000000E+00  0.00000000E+00
  0.00000000E+00  0.00000000E+00  0.00000000E+00
  0.00000000E+00  0.00000000E+00  0.00000000E+00
  0.00000000E+00  0.00000000E+00  0.00000000E+00
  0.00000000E+00  0.00000000E+00  0.00000000E+00
  0.00000000E+00  0.00000000E+00  0.00000000E+00
  0.00000000E+00  0.00000000E+00  0.00000000E+00
  0.00000000E+00  0.00000000E+00  0.00000000E+00
  0.00000000E+00  0.00000000E+00  0.00000000E+00
  0.00000000E+00  0.00000000E+00  0.00000000E+00
  0.00000000E+00  0.00000000E+00  0.00000000E+00
  0.00000000E+00  0.00000000E+00  0.00000000E+00
  0.00000000E+00  0.00000000E+00  0.00000000E+00
  0.00000000E+00  0.00000000E+00  0.00000000E+00
  0.00000000E+00  0.00000000E+00  0.00000000E+00
  0.00000000E+00  0.00000000E+00  0.00000000E+00
  0.00000000E+00  0.00000000E+00  0.00000000E+00
  0.00000000E+00  0.00000000E+00  0.00000000E+00
  0.00000000E+00  0.00000000E+00  0.00000000E+00
  0.00000000E+00  0.00000000E+00  0.00000000E+00
  0.00000000E+00  0.00000000E+00  0.00000000E+00
  0.00000000E+00  0.00000000E+00  0.00000000E+00
  0.00000000E+00  0.00000000E+00  0.00000000E+00
  0.00000000E+00  0.00000000E+00  0.00000000E+00
  0.00000000E+00  0.00000000E+00  0.00000000E+00
  0.00000000E+00  0.00000000E+00  0.00000000E+00
  0.00000000E+00  0.00000000E+00  0.00000000E+00
  0.00000000E+00  0.00000000E+00  0.00000000E+00
  0.00000000E+00  0.00000000E+00  0.00000000E+00
  0.00000000E+00  0.00000000E+00  0.00000000E+00
  0.00000000E+00  0.00000000E+00  0.00000000E+00
  0.00000000E+00  0.00000000E+00  0.00000000E+00
  0.00000000E+00  0.00000000E+00  0.00000000E+00
  0.00000000E+00  0.00000000E+00  0.00000000E+00
  0.00000000E+00  0.00000000E+00  0.00000000E+00
  0.00000000E+00  0.00000000E+00  0.00000000E+00
  0.00000000E+00  0.00000000E+00  0.00000000E+00
  0.00000000E+00  0.00000000E+00  0.00000000E+00
  0.00000000E+00  0.00000000E+00  0.00000000E+00
  0.00000000E+00  0.00000000E+00  0.00000000E+00
  0.00000000E+00  0.00000000E+00  0.00000000E+00
  0.00000000E+00  0.00000000E+00  0.00000000E+00
  0.00000000E+00  0.00000000E+00  0.00000000E+00
  0.00000000E+00  0.00000000E+00  0.00000000E+00
  0.00000000E+00  0.00000000E+00  0.00000000E+00
  0.00000000E+00  0.00000000E+00  0.00000000E+00
  0.00000000E+00  0.00000000E+00  0.00000000E+00
  0.00000000E+00  0.00000000E+00  0.00000000E+00
  0.00000000E+00  0.00000000E+00  0.00000000E+00
  0.00000000E+00  0.00000000E+00  0.00000000E+00
  0.00000000E+00  0.00000000E+00  0.00000000E+00
  0.00000000E+00  0.00000000E+00  0.00000000E+00
  0.00000000E+00  0.00000000E+00  0.00000000E+00
  0.00000000E+00  0.00000000E+00  0.00000000E+00
  0.00000000E+00  0.00000000E+00  0.00000000E+00
  0.00000000E+00  0.00000000E+00  0.00000000E+00
  0.00000000E+00  0.00000000E+00  0.00000000E+00
  0.00000000E+00  0.00000000E+00  0.00000000E+00
  0.00000000E+00  0.00000000E+00  0.00000000E+00
  0.00000000E+00  0.00000000E+00  0.00000000E+00
  0.00000000E+00  0.00000000E+00  0.00000000E+00
  0.00000000E+00  0.00000000E+00  0.00000000E+00
  0.00000000E+00  0.00000000E+00  0.00000000E+00
  0.00000000E+00  0.00000000E+00  0.00000000E+00
