generated by phonopy                    
    1.003323686498206     
    48.3401824095364034   -0.0000000000000000    0.0000000000000000
    -0.0000000000000000    5.1171265862737156   -0.0000000000000002
     0.0000000000000000   -2.5585632931368578    4.4315616180937898
   Co   Ru
    80    16
Direct
  0.0245343653052075  0.3333333333333286  0.1666666666666714
  0.0245343653052075  0.3333333333333286  0.6666666666666714
  0.0245343653052075  0.8333333333333286  0.1666666666666714
  0.0245343653052075  0.8333333333333286  0.6666666666666714
  0.0652127009151022  0.1666666666666714  0.3333333333333286
  0.0652127009151022  0.1666666666666714  0.8333333333333286
  0.0652127009151022  0.6666666666666714  0.3333333333333286
  0.0652127009151022  0.6666666666666714  0.8333333333333286
  0.1061325820402109  0.3333333333333286  0.1666666666666714
  0.1061325820402109  0.3333333333333286  0.6666666666666714
  0.1061325820402109  0.8333333333333286  0.1666666666666714
  0.1061325820402109  0.8333333333333286  0.6666666666666714
  0.1470085282264320  0.1666666666666714  0.3333333333333286
  0.1470085282264320  0.1666666666666714  0.8333333333333286
  0.1470085282264320  0.6666666666666714  0.3333333333333286
  0.1470085282264320  0.6666666666666714  0.8333333333333286
  0.1879084969274992  0.3333333333333286  0.1666666666666714
  0.1879084969274992  0.3333333333333286  0.6666666666666714
  0.1879084969274992  0.8333333333333286  0.1666666666666714
  0.1879084969274992  0.8333333333333286  0.6666666666666714
  0.2287600642124509  0.1666666666666714  0.3333333333333286
  0.2287600642124509  0.1666666666666714  0.8333333333333286
  0.2287600642124509  0.6666666666666714  0.3333333333333286
  0.2287600642124509  0.6666666666666714  0.8333333333333286
  0.2696581879312890  0.3333333333333286  0.1666666666666714
  0.2696581879312890  0.3333333333333286  0.6666666666666714
  0.2696581879312890  0.8333333333333286  0.1666666666666714
  0.2696581879312890  0.8333333333333286  0.6666666666666714
  0.3105322390795132  0.1666666666666714  0.3333333333333286
  0.3105322390795132  0.1666666666666714  0.8333333333333286
  0.3105322390795132  0.6666666666666714  0.3333333333333286
  0.3105322390795132  0.6666666666666714  0.8333333333333286
  0.3514522114091130  0.3333333333333286  0.1666666666666714
  0.3514522114091130  0.3333333333333286  0.6666666666666714
  0.3514522114091130  0.8333333333333286  0.1666666666666714
  0.3514522114091130  0.8333333333333286  0.6666666666666714
  0.3921322137209559  0.1666666666666714  0.3333333333333286
  0.3921322137209559  0.1666666666666714  0.8333333333333286
  0.3921322137209559  0.6666666666666714  0.3333333333333286
  0.3921322137209559  0.6666666666666714  0.8333333333333286
  0.5245343653052076  0.3333333333333286  0.1666666666666714
  0.5245343653052076  0.3333333333333286  0.6666666666666714
  0.5245343653052076  0.8333333333333286  0.1666666666666714
  0.5245343653052076  0.8333333333333286  0.6666666666666714
  0.5652127009151025  0.1666666666666714  0.3333333333333286
  0.5652127009151025  0.1666666666666714  0.8333333333333286
  0.5652127009151025  0.6666666666666714  0.3333333333333286
  0.5652127009151025  0.6666666666666714  0.8333333333333286
  0.6061325820402179  0.3333333333333286  0.1666666666666714
  0.6061325820402179  0.3333333333333286  0.6666666666666714
  0.6061325820402179  0.8333333333333286  0.1666666666666714
  0.6061325820402179  0.8333333333333286  0.6666666666666714
  0.6470085282264320  0.1666666666666714  0.3333333333333286
  0.6470085282264320  0.1666666666666714  0.8333333333333286
  0.6470085282264320  0.6666666666666714  0.3333333333333286
  0.6470085282264320  0.6666666666666714  0.8333333333333286
  0.6879084969275059  0.3333333333333286  0.1666666666666714
  0.6879084969275059  0.3333333333333286  0.6666666666666714
  0.6879084969275059  0.8333333333333286  0.1666666666666714
  0.6879084969275059  0.8333333333333286  0.6666666666666714
  0.7287600642124513  0.1666666666666714  0.3333333333333286
  0.7287600642124513  0.1666666666666714  0.8333333333333286
  0.7287600642124513  0.6666666666666714  0.3333333333333286
  0.7287600642124513  0.6666666666666714  0.8333333333333286
  0.7696581879312747  0.3333333333333286  0.1666666666666714
  0.7696581879312747  0.3333333333333286  0.6666666666666714
  0.7696581879312747  0.8333333333333286  0.1666666666666714
  0.7696581879312747  0.8333333333333286  0.6666666666666714
  0.8105322390795133  0.1666666666666714  0.3333333333333286
  0.8105322390795133  0.1666666666666714  0.8333333333333286
  0.8105322390795133  0.6666666666666714  0.3333333333333286
  0.8105322390795133  0.6666666666666714  0.8333333333333286
  0.8514522114091128  0.3333333333333286  0.1666666666666714
  0.8514522114091128  0.3333333333333286  0.6666666666666714
  0.8514522114091128  0.8333333333333286  0.1666666666666714
  0.8514522114091128  0.8333333333333286  0.6666666666666714
  0.8921322137209485  0.1666666666666714  0.3333333333333286
  0.8921322137209485  0.1666666666666714  0.8333333333333286
  0.8921322137209485  0.6666666666666714  0.3333333333333286
  0.8921322137209485  0.6666666666666714  0.8333333333333286
  0.4356737369345733  0.3333333333333286  0.1666666666666714
  0.4356737369345733  0.3333333333333286  0.6666666666666714
  0.4356737369345733  0.8333333333333286  0.1666666666666714
  0.4356737369345733  0.8333333333333286  0.6666666666666714
  0.4809946732976602  0.1666666666666714  0.3333333333333286
  0.4809946732976602  0.1666666666666714  0.8333333333333286
  0.4809946732976602  0.6666666666666714  0.3333333333333286
  0.4809946732976602  0.6666666666666714  0.8333333333333286
  0.9356737369345804  0.3333333333333286  0.1666666666666714
  0.9356737369345804  0.3333333333333286  0.6666666666666714
  0.9356737369345804  0.8333333333333286  0.1666666666666714
  0.9356737369345804  0.8333333333333286  0.6666666666666714
  0.9809946732976602  0.1666666666666714  0.3333333333333286
  0.9809946732976602  0.1666666666666714  0.8333333333333286
  0.9809946732976602  0.6666666666666714  0.3333333333333286
  0.9809946732976602  0.6666666666666714  0.8333333333333286
 
  0.00000000E+00  0.00000000E+00  0.00000000E+00
  0.00000000E+00  0.00000000E+00  0.00000000E+00
  0.00000000E+00  0.00000000E+00  0.00000000E+00
  0.00000000E+00  0.00000000E+00  0.00000000E+00
  0.00000000E+00  0.00000000E+00  0.00000000E+00
  0.00000000E+00  0.00000000E+00  0.00000000E+00
  0.00000000E+00  0.00000000E+00  0.00000000E+00
  0.00000000E+00  0.00000000E+00  0.00000000E+00
  0.00000000E+00  0.00000000E+00  0.00000000E+00
  0.00000000E+00  0.00000000E+00  0.00000000E+00
  0.00000000E+00  0.00000000E+00  0.00000000E+00
  0.00000000E+00  0.00000000E+00  0.00000000E+00
  0.00000000E+00  0.00000000E+00  0.00000000E+00
  0.00000000E+00  0.00000000E+00  0.00000000E+00
  0.00000000E+00  0.00000000E+00  0.00000000E+00
  0.00000000E+00  0.00000000E+00  0.00000000E+00
  0.00000000E+00  0.00000000E+00  0.00000000E+00
  0.00000000E+00  0.00000000E+00  0.00000000E+00
  0.00000000E+00  0.00000000E+00  0.00000000E+00
  0.00000000E+00  0.00000000E+00  0.00000000E+00
  0.00000000E+00  0.00000000E+00  0.00000000E+00
  0.00000000E+00  0.00000000E+00  0.00000000E+00
  0.00000000E+00  0.00000000E+00  0.00000000E+00
  0.00000000E+00  0.00000000E+00  0.00000000E+00
  0.00000000E+00  0.00000000E+00  0.00000000E+00
  0.00000000E+00  0.00000000E+00  0.00000000E+00
  0.00000000E+00  0.00000000E+00  0.00000000E+00
  0.00000000E+00  0.00000000E+00  0.00000000E+00
  0.00000000E+00  0.00000000E+00  0.00000000E+00
  0.00000000E+00  0.00000000E+00  0.00000000E+00
  0.00000000E+00  0.00000000E+00  0.00000000E+00
  0.00000000E+00  0.00000000E+00  0.00000000E+00
  0.00000000E+00  0.00000000E+00  0.00000000E+00
  0.00000000E+00  0.00000000E+00  0.00000000E+00
  0.00000000E+00  0.00000000E+00  0.00000000E+00
  0.00000000E+00  0.00000000E+00  0.00000000E+00
  0.00000000E+00  0.00000000E+00  0.00000000E+00
  0.00000000E+00  0.00000000E+00  0.00000000E+00
  0.00000000E+00  0.00000000E+00  0.00000000E+00
  0.00000000E+00  0.00000000E+00  0.00000000E+00
  0.00000000E+00  0.00000000E+00  0.00000000E+00
  0.00000000E+00  0.00000000E+00  0.00000000E+00
  0.00000000E+00  0.00000000E+00  0.00000000E+00
  0.00000000E+00  0.00000000E+00  0.00000000E+00
  0.00000000E+00  0.00000000E+00  0.00000000E+00
  0.00000000E+00  0.00000000E+00  0.00000000E+00
  0.00000000E+00  0.00000000E+00  0.00000000E+00
  0.00000000E+00  0.00000000E+00  0.00000000E+00
  0.00000000E+00  0.00000000E+00  0.00000000E+00
  0.00000000E+00  0.00000000E+00  0.00000000E+00
  0.00000000E+00  0.00000000E+00  0.00000000E+00
  0.00000000E+00  0.00000000E+00  0.00000000E+00
  0.00000000E+00  0.00000000E+00  0.00000000E+00
  0.00000000E+00  0.00000000E+00  0.00000000E+00
  0.00000000E+00  0.00000000E+00  0.00000000E+00
  0.00000000E+00  0.00000000E+00  0.00000000E+00
  0.00000000E+00  0.00000000E+00  0.00000000E+00
  0.00000000E+00  0.00000000E+00  0.00000000E+00
  0.00000000E+00  0.00000000E+00  0.00000000E+00
  0.00000000E+00  0.00000000E+00  0.00000000E+00
  0.00000000E+00  0.00000000E+00  0.00000000E+00
  0.00000000E+00  0.00000000E+00  0.00000000E+00
  0.00000000E+00  0.00000000E+00  0.00000000E+00
  0.00000000E+00  0.00000000E+00  0.00000000E+00
  0.00000000E+00  0.00000000E+00  0.00000000E+00
  0.00000000E+00  0.00000000E+00  0.00000000E+00
  0.00000000E+00  0.00000000E+00  0.00000000E+00
  0.00000000E+00  0.00000000E+00  0.00000000E+00
  0.00000000E+00  0.00000000E+00  0.00000000E+00
  0.00000000E+00  0.00000000E+00  0.00000000E+00
  0.00000000E+00  0.00000000E+00  0.00000000E+00
  0.00000000E+00  0.00000000E+00  0.00000000E+00
  0.00000000E+00  0.00000000E+00  0.00000000E+00
  0.00000000E+00  0.00000000E+00  0.00000000E+00
  0.00000000E+00  0.00000000E+00  0.00000000E+00
  0.00000000E+00  0.00000000E+00  0.00000000E+00
  0.00000000E+00  0.00000000E+00  0.00000000E+00
  0.00000000E+00  0.00000000E+00  0.00000000E+00
  0.00000000E+00  0.00000000E+00  0.00000000E+00
  0.00000000E+00  0.00000000E+00  0.00000000E+00
  0.00000000E+00  0.00000000E+00  0.00000000E+00
  0.00000000E+00  0.00000000E+00  0.00000000E+00
  0.00000000E+00  0.00000000E+00  0.00000000E+00
  0.00000000E+00  0.00000000E+00  0.00000000E+00
  0.00000000E+00  0.00000000E+00  0.00000000E+00
  0.00000000E+00  0.00000000E+00  0.00000000E+00
  0.00000000E+00  0.00000000E+00  0.00000000E+00
  0.00000000E+00  0.00000000E+00  0.00000000E+00
  0.00000000E+00  0.00000000E+00  0.00000000E+00
  0.00000000E+00  0.00000000E+00  0.00000000E+00
  0.00000000E+00  0.00000000E+00  0.00000000E+00
  0.00000000E+00  0.00000000E+00  0.00000000E+00
  0.00000000E+00  0.00000000E+00  0.00000000E+00
  0.00000000E+00  0.00000000E+00  0.00000000E+00
  0.00000000E+00  0.00000000E+00  0.00000000E+00
  0.00000000E+00  0.00000000E+00  0.00000000E+00
