generated by phonopy                    
   0.9999680638194146     
    48.3370104081225875   -0.0000000000000000    0.0000000000000000
    -0.0000000000000000    5.1172944831538576   -0.0000000000000002
     0.0000000000000000   -2.5586472415769292    4.4317070210572114
   Co   Ru
    80    16
Direct
  0.0246008567429002  0.3333333333333286  0.1666666666666714
  0.0246008567429002  0.3333333333333286  0.6666666666666714
  0.0246008567429002  0.8333333333333286  0.1666666666666714
  0.0246008567429002  0.8333333333333286  0.6666666666666714
  0.0652495669065312  0.1666666666666714  0.3333333333333286
  0.0652495669065312  0.1666666666666714  0.8333333333333286
  0.0652495669065312  0.6666666666666714  0.3333333333333286
  0.0652495669065312  0.6666666666666714  0.8333333333333286
  0.1061406282981618  0.3333333333333286  0.1666666666666714
  0.1061406282981618  0.3333333333333286  0.6666666666666714
  0.1061406282981618  0.8333333333333286  0.1666666666666714
  0.1061406282981618  0.8333333333333286  0.6666666666666714
  0.1470086188733397  0.1666666666666714  0.3333333333333286
  0.1470086188733397  0.1666666666666714  0.8333333333333286
  0.1470086188733397  0.6666666666666714  0.3333333333333286
  0.1470086188733397  0.6666666666666714  0.8333333333333286
  0.1879060277497340  0.3333333333333286  0.1666666666666714
  0.1879060277497340  0.3333333333333286  0.6666666666666714
  0.1879060277497340  0.8333333333333286  0.1666666666666714
  0.1879060277497340  0.8333333333333286  0.6666666666666714
  0.2287625333902161  0.1666666666666714  0.3333333333333286
  0.2287625333902161  0.1666666666666714  0.8333333333333286
  0.2287625333902161  0.6666666666666714  0.3333333333333286
  0.2287625333902161  0.6666666666666714  0.8333333333333286
  0.2696580972843741  0.3333333333333286  0.1666666666666714
  0.2696580972843741  0.3333333333333286  0.6666666666666714
  0.2696580972843741  0.8333333333333286  0.1666666666666714
  0.2696580972843741  0.8333333333333286  0.6666666666666714
  0.3105241928215625  0.1666666666666714  0.3333333333333286
  0.3105241928215625  0.1666666666666714  0.8333333333333286
  0.3105241928215625  0.6666666666666714  0.3333333333333286
  0.3105241928215625  0.6666666666666714  0.8333333333333286
  0.3514153454176840  0.3333333333333286  0.1666666666666714
  0.3514153454176840  0.3333333333333286  0.6666666666666714
  0.3514153454176840  0.8333333333333286  0.1666666666666714
  0.3514153454176840  0.8333333333333286  0.6666666666666714
  0.3920657222832630  0.1666666666666714  0.3333333333333286
  0.3920657222832630  0.1666666666666714  0.8333333333333286
  0.3920657222832630  0.6666666666666714  0.3333333333333286
  0.3920657222832630  0.6666666666666714  0.8333333333333286
  0.5246008567429001  0.3333333333333286  0.1666666666666714
  0.5246008567429001  0.3333333333333286  0.6666666666666714
  0.5246008567429001  0.8333333333333286  0.1666666666666714
  0.5246008567429001  0.8333333333333286  0.6666666666666714
  0.5652495669065313  0.1666666666666714  0.3333333333333286
  0.5652495669065313  0.1666666666666714  0.8333333333333286
  0.5652495669065313  0.6666666666666714  0.3333333333333286
  0.5652495669065313  0.6666666666666714  0.8333333333333286
  0.6061406282981689  0.3333333333333286  0.1666666666666714
  0.6061406282981689  0.3333333333333286  0.6666666666666714
  0.6061406282981689  0.8333333333333286  0.1666666666666714
  0.6061406282981689  0.8333333333333286  0.6666666666666714
  0.6470086188733397  0.1666666666666714  0.3333333333333286
  0.6470086188733397  0.1666666666666714  0.8333333333333286
  0.6470086188733397  0.6666666666666714  0.3333333333333286
  0.6470086188733397  0.6666666666666714  0.8333333333333286
  0.6879060277497413  0.3333333333333286  0.1666666666666714
  0.6879060277497413  0.3333333333333286  0.6666666666666714
  0.6879060277497413  0.8333333333333286  0.1666666666666714
  0.6879060277497413  0.8333333333333286  0.6666666666666714
  0.7287625333902159  0.1666666666666714  0.3333333333333286
  0.7287625333902159  0.1666666666666714  0.8333333333333286
  0.7287625333902159  0.6666666666666714  0.3333333333333286
  0.7287625333902159  0.6666666666666714  0.8333333333333286
  0.7696580972843670  0.3333333333333286  0.1666666666666714
  0.7696580972843670  0.3333333333333286  0.6666666666666714
  0.7696580972843670  0.8333333333333286  0.1666666666666714
  0.7696580972843670  0.8333333333333286  0.6666666666666714
  0.8105241928215623  0.1666666666666714  0.3333333333333286
  0.8105241928215623  0.1666666666666714  0.8333333333333286
  0.8105241928215623  0.6666666666666714  0.3333333333333286
  0.8105241928215623  0.6666666666666714  0.8333333333333286
  0.8514153454176839  0.3333333333333286  0.1666666666666714
  0.8514153454176839  0.3333333333333286  0.6666666666666714
  0.8514153454176839  0.8333333333333286  0.1666666666666714
  0.8514153454176839  0.8333333333333286  0.6666666666666714
  0.8920657222832560  0.1666666666666714  0.3333333333333286
  0.8920657222832560  0.1666666666666714  0.8333333333333286
  0.8920657222832560  0.6666666666666714  0.3333333333333286
  0.8920657222832560  0.6666666666666714  0.8333333333333286
  0.4355799440529951  0.3333333333333286  0.1666666666666714
  0.4355799440529951  0.3333333333333286  0.6666666666666714
  0.4355799440529951  0.8333333333333286  0.1666666666666714
  0.4355799440529951  0.8333333333333286  0.6666666666666714
  0.4810884661792384  0.1666666666666714  0.3333333333333286
  0.4810884661792384  0.1666666666666714  0.8333333333333286
  0.4810884661792384  0.6666666666666714  0.3333333333333286
  0.4810884661792384  0.6666666666666714  0.8333333333333286
  0.9355799440530022  0.3333333333333286  0.1666666666666714
  0.9355799440530022  0.3333333333333286  0.6666666666666714
  0.9355799440530022  0.8333333333333286  0.1666666666666714
  0.9355799440530022  0.8333333333333286  0.6666666666666714
  0.9810884661792385  0.1666666666666714  0.3333333333333286
  0.9810884661792385  0.1666666666666714  0.8333333333333286
  0.9810884661792385  0.6666666666666714  0.3333333333333286
  0.9810884661792385  0.6666666666666714  0.8333333333333286
 
  0.00000000E+00  0.00000000E+00  0.00000000E+00
  0.00000000E+00  0.00000000E+00  0.00000000E+00
  0.00000000E+00  0.00000000E+00  0.00000000E+00
  0.00000000E+00  0.00000000E+00  0.00000000E+00
  0.00000000E+00  0.00000000E+00  0.00000000E+00
  0.00000000E+00  0.00000000E+00  0.00000000E+00
  0.00000000E+00  0.00000000E+00  0.00000000E+00
  0.00000000E+00  0.00000000E+00  0.00000000E+00
  0.00000000E+00  0.00000000E+00  0.00000000E+00
  0.00000000E+00  0.00000000E+00  0.00000000E+00
  0.00000000E+00  0.00000000E+00  0.00000000E+00
  0.00000000E+00  0.00000000E+00  0.00000000E+00
  0.00000000E+00  0.00000000E+00  0.00000000E+00
  0.00000000E+00  0.00000000E+00  0.00000000E+00
  0.00000000E+00  0.00000000E+00  0.00000000E+00
  0.00000000E+00  0.00000000E+00  0.00000000E+00
  0.00000000E+00  0.00000000E+00  0.00000000E+00
  0.00000000E+00  0.00000000E+00  0.00000000E+00
  0.00000000E+00  0.00000000E+00  0.00000000E+00
  0.00000000E+00  0.00000000E+00  0.00000000E+00
  0.00000000E+00  0.00000000E+00  0.00000000E+00
  0.00000000E+00  0.00000000E+00  0.00000000E+00
  0.00000000E+00  0.00000000E+00  0.00000000E+00
  0.00000000E+00  0.00000000E+00  0.00000000E+00
  0.00000000E+00  0.00000000E+00  0.00000000E+00
  0.00000000E+00  0.00000000E+00  0.00000000E+00
  0.00000000E+00  0.00000000E+00  0.00000000E+00
  0.00000000E+00  0.00000000E+00  0.00000000E+00
  0.00000000E+00  0.00000000E+00  0.00000000E+00
  0.00000000E+00  0.00000000E+00  0.00000000E+00
  0.00000000E+00  0.00000000E+00  0.00000000E+00
  0.00000000E+00  0.00000000E+00  0.00000000E+00
  0.00000000E+00  0.00000000E+00  0.00000000E+00
  0.00000000E+00  0.00000000E+00  0.00000000E+00
  0.00000000E+00  0.00000000E+00  0.00000000E+00
  0.00000000E+00  0.00000000E+00  0.00000000E+00
  0.00000000E+00  0.00000000E+00  0.00000000E+00
  0.00000000E+00  0.00000000E+00  0.00000000E+00
  0.00000000E+00  0.00000000E+00  0.00000000E+00
  0.00000000E+00  0.00000000E+00  0.00000000E+00
  0.00000000E+00  0.00000000E+00  0.00000000E+00
  0.00000000E+00  0.00000000E+00  0.00000000E+00
  0.00000000E+00  0.00000000E+00  0.00000000E+00
  0.00000000E+00  0.00000000E+00  0.00000000E+00
  0.00000000E+00  0.00000000E+00  0.00000000E+00
  0.00000000E+00  0.00000000E+00  0.00000000E+00
  0.00000000E+00  0.00000000E+00  0.00000000E+00
  0.00000000E+00  0.00000000E+00  0.00000000E+00
  0.00000000E+00  0.00000000E+00  0.00000000E+00
  0.00000000E+00  0.00000000E+00  0.00000000E+00
  0.00000000E+00  0.00000000E+00  0.00000000E+00
  0.00000000E+00  0.00000000E+00  0.00000000E+00
  0.00000000E+00  0.00000000E+00  0.00000000E+00
  0.00000000E+00  0.00000000E+00  0.00000000E+00
  0.00000000E+00  0.00000000E+00  0.00000000E+00
  0.00000000E+00  0.00000000E+00  0.00000000E+00
  0.00000000E+00  0.00000000E+00  0.00000000E+00
  0.00000000E+00  0.00000000E+00  0.00000000E+00
  0.00000000E+00  0.00000000E+00  0.00000000E+00
  0.00000000E+00  0.00000000E+00  0.00000000E+00
  0.00000000E+00  0.00000000E+00  0.00000000E+00
  0.00000000E+00  0.00000000E+00  0.00000000E+00
  0.00000000E+00  0.00000000E+00  0.00000000E+00
  0.00000000E+00  0.00000000E+00  0.00000000E+00
  0.00000000E+00  0.00000000E+00  0.00000000E+00
  0.00000000E+00  0.00000000E+00  0.00000000E+00
  0.00000000E+00  0.00000000E+00  0.00000000E+00
  0.00000000E+00  0.00000000E+00  0.00000000E+00
  0.00000000E+00  0.00000000E+00  0.00000000E+00
  0.00000000E+00  0.00000000E+00  0.00000000E+00
  0.00000000E+00  0.00000000E+00  0.00000000E+00
  0.00000000E+00  0.00000000E+00  0.00000000E+00
  0.00000000E+00  0.00000000E+00  0.00000000E+00
  0.00000000E+00  0.00000000E+00  0.00000000E+00
  0.00000000E+00  0.00000000E+00  0.00000000E+00
  0.00000000E+00  0.00000000E+00  0.00000000E+00
  0.00000000E+00  0.00000000E+00  0.00000000E+00
  0.00000000E+00  0.00000000E+00  0.00000000E+00
  0.00000000E+00  0.00000000E+00  0.00000000E+00
  0.00000000E+00  0.00000000E+00  0.00000000E+00
  0.00000000E+00  0.00000000E+00  0.00000000E+00
  0.00000000E+00  0.00000000E+00  0.00000000E+00
  0.00000000E+00  0.00000000E+00  0.00000000E+00
  0.00000000E+00  0.00000000E+00  0.00000000E+00
  0.00000000E+00  0.00000000E+00  0.00000000E+00
  0.00000000E+00  0.00000000E+00  0.00000000E+00
  0.00000000E+00  0.00000000E+00  0.00000000E+00
  0.00000000E+00  0.00000000E+00  0.00000000E+00
  0.00000000E+00  0.00000000E+00  0.00000000E+00
  0.00000000E+00  0.00000000E+00  0.00000000E+00
  0.00000000E+00  0.00000000E+00  0.00000000E+00
  0.00000000E+00  0.00000000E+00  0.00000000E+00
  0.00000000E+00  0.00000000E+00  0.00000000E+00
  0.00000000E+00  0.00000000E+00  0.00000000E+00
  0.00000000E+00  0.00000000E+00  0.00000000E+00
  0.00000000E+00  0.00000000E+00  0.00000000E+00
