generated by phonopy                    
   0.9966554934125961     
    32.2967668373991472    0.0000000000000000    0.0000000000000000
     0.0000000000000000    5.0922636531408658    0.0000000000000000
    -0.0000000000000000   -2.5461318265704329    4.4100296863881416
   Co   Ru
    56     8
Direct
  0.0340461476563367  0.3333333333333286  0.1666666666666714
  0.0340461476563367  0.3333333333333286  0.6666666666666714
  0.0340461476563367  0.8333333333333286  0.1666666666666714
  0.0340461476563367  0.8333333333333286  0.6666666666666714
  0.0953847399663684  0.1666666666666714  0.3333333333333286
  0.0953847399663684  0.1666666666666714  0.8333333333333286
  0.0953847399663684  0.6666666666666714  0.3333333333333286
  0.0953847399663684  0.6666666666666714  0.8333333333333286
  0.1570343973173854  0.3333333333333286  0.1666666666666714
  0.1570343973173854  0.3333333333333286  0.6666666666666714
  0.1570343973173854  0.8333333333333286  0.1666666666666714
  0.1570343973173854  0.8333333333333286  0.6666666666666714
  0.2187500000000000  0.1666666666666714  0.3333333333333286
  0.2187500000000000  0.1666666666666714  0.8333333333333286
  0.2187500000000000  0.6666666666666714  0.3333333333333286
  0.2187500000000000  0.6666666666666714  0.8333333333333286
  0.2804656026826144  0.3333333333333286  0.1666666666666714
  0.2804656026826144  0.3333333333333286  0.6666666666666714
  0.2804656026826144  0.8333333333333286  0.1666666666666714
  0.2804656026826144  0.8333333333333286  0.6666666666666714
  0.3421152600336316  0.1666666666666714  0.3333333333333286
  0.3421152600336316  0.1666666666666714  0.8333333333333286
  0.3421152600336316  0.6666666666666714  0.3333333333333286
  0.3421152600336316  0.6666666666666714  0.8333333333333286
  0.4034538523436633  0.3333333333333286  0.1666666666666714
  0.4034538523436633  0.3333333333333286  0.6666666666666714
  0.4034538523436633  0.8333333333333286  0.1666666666666714
  0.4034538523436633  0.8333333333333286  0.6666666666666714
  0.5340461476563367  0.3333333333333286  0.1666666666666714
  0.5340461476563367  0.3333333333333286  0.6666666666666714
  0.5340461476563367  0.8333333333333286  0.1666666666666714
  0.5340461476563367  0.8333333333333286  0.6666666666666714
  0.5953847399663685  0.1666666666666714  0.3333333333333286
  0.5953847399663685  0.1666666666666714  0.8333333333333286
  0.5953847399663685  0.6666666666666714  0.3333333333333286
  0.5953847399663685  0.6666666666666714  0.8333333333333286
  0.6570343973173854  0.3333333333333286  0.1666666666666714
  0.6570343973173854  0.3333333333333286  0.6666666666666714
  0.6570343973173854  0.8333333333333286  0.1666666666666714
  0.6570343973173854  0.8333333333333286  0.6666666666666714
  0.7187500000000000  0.1666666666666714  0.3333333333333286
  0.7187500000000000  0.1666666666666714  0.8333333333333286
  0.7187500000000000  0.6666666666666714  0.3333333333333286
  0.7187500000000000  0.6666666666666714  0.8333333333333286
  0.7804656026826146  0.3333333333333286  0.1666666666666714
  0.7804656026826146  0.3333333333333286  0.6666666666666714
  0.7804656026826146  0.8333333333333286  0.1666666666666714
  0.7804656026826146  0.8333333333333286  0.6666666666666714
  0.8421152600336315  0.1666666666666714  0.3333333333333286
  0.8421152600336315  0.1666666666666714  0.8333333333333286
  0.8421152600336315  0.6666666666666714  0.3333333333333286
  0.8421152600336315  0.6666666666666714  0.8333333333333286
  0.9034538523436633  0.3333333333333286  0.1666666666666714
  0.9034538523436633  0.3333333333333286  0.6666666666666714
  0.9034538523436633  0.8333333333333286  0.1666666666666714
  0.9034538523436633  0.8333333333333286  0.6666666666666714
  0.4687500000000000  0.1666666666666714  0.3333333333333286
  0.4687500000000000  0.1666666666666714  0.8333333333333286
  0.4687500000000000  0.6666666666666714  0.3333333333333286
  0.4687500000000000  0.6666666666666714  0.8333333333333286
  0.9687500000000000  0.1666666666666714  0.3333333333333286
  0.9687500000000000  0.1666666666666714  0.8333333333333286
  0.9687500000000000  0.6666666666666714  0.3333333333333286
  0.9687500000000000  0.6666666666666714  0.8333333333333286
 
  0.00000000E+00  0.00000000E+00  0.00000000E+00
  0.00000000E+00  0.00000000E+00  0.00000000E+00
  0.00000000E+00  0.00000000E+00  0.00000000E+00
  0.00000000E+00  0.00000000E+00  0.00000000E+00
  0.00000000E+00  0.00000000E+00  0.00000000E+00
  0.00000000E+00  0.00000000E+00  0.00000000E+00
  0.00000000E+00  0.00000000E+00  0.00000000E+00
  0.00000000E+00  0.00000000E+00  0.00000000E+00
  0.00000000E+00  0.00000000E+00  0.00000000E+00
  0.00000000E+00  0.00000000E+00  0.00000000E+00
  0.00000000E+00  0.00000000E+00  0.00000000E+00
  0.00000000E+00  0.00000000E+00  0.00000000E+00
  0.00000000E+00  0.00000000E+00  0.00000000E+00
  0.00000000E+00  0.00000000E+00  0.00000000E+00
  0.00000000E+00  0.00000000E+00  0.00000000E+00
  0.00000000E+00  0.00000000E+00  0.00000000E+00
  0.00000000E+00  0.00000000E+00  0.00000000E+00
  0.00000000E+00  0.00000000E+00  0.00000000E+00
  0.00000000E+00  0.00000000E+00  0.00000000E+00
  0.00000000E+00  0.00000000E+00  0.00000000E+00
  0.00000000E+00  0.00000000E+00  0.00000000E+00
  0.00000000E+00  0.00000000E+00  0.00000000E+00
  0.00000000E+00  0.00000000E+00  0.00000000E+00
  0.00000000E+00  0.00000000E+00  0.00000000E+00
  0.00000000E+00  0.00000000E+00  0.00000000E+00
  0.00000000E+00  0.00000000E+00  0.00000000E+00
  0.00000000E+00  0.00000000E+00  0.00000000E+00
  0.00000000E+00  0.00000000E+00  0.00000000E+00
  0.00000000E+00  0.00000000E+00  0.00000000E+00
  0.00000000E+00  0.00000000E+00  0.00000000E+00
  0.00000000E+00  0.00000000E+00  0.00000000E+00
  0.00000000E+00  0.00000000E+00  0.00000000E+00
  0.00000000E+00  0.00000000E+00  0.00000000E+00
  0.00000000E+00  0.00000000E+00  0.00000000E+00
  0.00000000E+00  0.00000000E+00  0.00000000E+00
  0.00000000E+00  0.00000000E+00  0.00000000E+00
  0.00000000E+00  0.00000000E+00  0.00000000E+00
  0.00000000E+00  0.00000000E+00  0.00000000E+00
  0.00000000E+00  0.00000000E+00  0.00000000E+00
  0.00000000E+00  0.00000000E+00  0.00000000E+00
  0.00000000E+00  0.00000000E+00  0.00000000E+00
  0.00000000E+00  0.00000000E+00  0.00000000E+00
  0.00000000E+00  0.00000000E+00  0.00000000E+00
  0.00000000E+00  0.00000000E+00  0.00000000E+00
  0.00000000E+00  0.00000000E+00  0.00000000E+00
  0.00000000E+00  0.00000000E+00  0.00000000E+00
  0.00000000E+00  0.00000000E+00  0.00000000E+00
  0.00000000E+00  0.00000000E+00  0.00000000E+00
  0.00000000E+00  0.00000000E+00  0.00000000E+00
  0.00000000E+00  0.00000000E+00  0.00000000E+00
  0.00000000E+00  0.00000000E+00  0.00000000E+00
  0.00000000E+00  0.00000000E+00  0.00000000E+00
  0.00000000E+00  0.00000000E+00  0.00000000E+00
  0.00000000E+00  0.00000000E+00  0.00000000E+00
  0.00000000E+00  0.00000000E+00  0.00000000E+00
  0.00000000E+00  0.00000000E+00  0.00000000E+00
  0.00000000E+00  0.00000000E+00  0.00000000E+00
  0.00000000E+00  0.00000000E+00  0.00000000E+00
  0.00000000E+00  0.00000000E+00  0.00000000E+00
  0.00000000E+00  0.00000000E+00  0.00000000E+00
  0.00000000E+00  0.00000000E+00  0.00000000E+00
  0.00000000E+00  0.00000000E+00  0.00000000E+00
  0.00000000E+00  0.00000000E+00  0.00000000E+00
  0.00000000E+00  0.00000000E+00  0.00000000E+00
