generated by phonopy                    
   0.9932883883792684     
    32.2864982029417220   -0.0000000000000000    0.0000000000000000
    -0.0000000000000000    5.0930733791852694    0.0000000000000000
    -0.0000000000000000   -2.5465366895926347    4.4107309297127024
   Co   Ru
    56     8
Direct
  0.0340906743149958  0.3333333333333286  0.1666666666666714
  0.0340906743149958  0.3333333333333286  0.6666666666666714
  0.0340906743149958  0.8333333333333286  0.1666666666666714
  0.0340906743149958  0.8333333333333286  0.6666666666666714
  0.0953864047697266  0.1666666666666714  0.3333333333333286
  0.0953864047697266  0.1666666666666714  0.8333333333333286
  0.0953864047697266  0.6666666666666714  0.3333333333333286
  0.0953864047697266  0.6666666666666714  0.8333333333333286
  0.1570225400135214  0.3333333333333286  0.1666666666666714
  0.1570225400135214  0.3333333333333286  0.6666666666666714
  0.1570225400135214  0.8333333333333286  0.1666666666666714
  0.1570225400135214  0.8333333333333286  0.6666666666666714
  0.2187500000000000  0.1666666666666714  0.3333333333333286
  0.2187500000000000  0.1666666666666714  0.8333333333333286
  0.2187500000000000  0.6666666666666714  0.3333333333333286
  0.2187500000000000  0.6666666666666714  0.8333333333333286
  0.2804774599864786  0.3333333333333286  0.1666666666666714
  0.2804774599864786  0.3333333333333286  0.6666666666666714
  0.2804774599864786  0.8333333333333286  0.1666666666666714
  0.2804774599864786  0.8333333333333286  0.6666666666666714
  0.3421135952302734  0.1666666666666714  0.3333333333333286
  0.3421135952302734  0.1666666666666714  0.8333333333333286
  0.3421135952302734  0.6666666666666714  0.3333333333333286
  0.3421135952302734  0.6666666666666714  0.8333333333333286
  0.4034093256850042  0.3333333333333286  0.1666666666666714
  0.4034093256850042  0.3333333333333286  0.6666666666666714
  0.4034093256850042  0.8333333333333286  0.1666666666666714
  0.4034093256850042  0.8333333333333286  0.6666666666666714
  0.5340906743149958  0.3333333333333286  0.1666666666666714
  0.5340906743149958  0.3333333333333286  0.6666666666666714
  0.5340906743149958  0.8333333333333286  0.1666666666666714
  0.5340906743149958  0.8333333333333286  0.6666666666666714
  0.5953864047697266  0.1666666666666714  0.3333333333333286
  0.5953864047697266  0.1666666666666714  0.8333333333333286
  0.5953864047697266  0.6666666666666714  0.3333333333333286
  0.5953864047697266  0.6666666666666714  0.8333333333333286
  0.6570225400135214  0.3333333333333286  0.1666666666666714
  0.6570225400135214  0.3333333333333286  0.6666666666666714
  0.6570225400135214  0.8333333333333286  0.1666666666666714
  0.6570225400135214  0.8333333333333286  0.6666666666666714
  0.7187500000000000  0.1666666666666714  0.3333333333333286
  0.7187500000000000  0.1666666666666714  0.8333333333333286
  0.7187500000000000  0.6666666666666714  0.3333333333333286
  0.7187500000000000  0.6666666666666714  0.8333333333333286
  0.7804774599864786  0.3333333333333286  0.1666666666666714
  0.7804774599864786  0.3333333333333286  0.6666666666666714
  0.7804774599864786  0.8333333333333286  0.1666666666666714
  0.7804774599864786  0.8333333333333286  0.6666666666666714
  0.8421135952302734  0.1666666666666714  0.3333333333333286
  0.8421135952302734  0.1666666666666714  0.8333333333333286
  0.8421135952302734  0.6666666666666714  0.3333333333333286
  0.8421135952302734  0.6666666666666714  0.8333333333333286
  0.9034093256850042  0.3333333333333286  0.1666666666666714
  0.9034093256850042  0.3333333333333286  0.6666666666666714
  0.9034093256850042  0.8333333333333286  0.1666666666666714
  0.9034093256850042  0.8333333333333286  0.6666666666666714
  0.4687500000000000  0.1666666666666714  0.3333333333333286
  0.4687500000000000  0.1666666666666714  0.8333333333333286
  0.4687500000000000  0.6666666666666714  0.3333333333333286
  0.4687500000000000  0.6666666666666714  0.8333333333333286
  0.9687500000000000  0.1666666666666714  0.3333333333333286
  0.9687500000000000  0.1666666666666714  0.8333333333333286
  0.9687500000000000  0.6666666666666714  0.3333333333333286
  0.9687500000000000  0.6666666666666714  0.8333333333333286
 
  0.00000000E+00  0.00000000E+00  0.00000000E+00
  0.00000000E+00  0.00000000E+00  0.00000000E+00
  0.00000000E+00  0.00000000E+00  0.00000000E+00
  0.00000000E+00  0.00000000E+00  0.00000000E+00
  0.00000000E+00  0.00000000E+00  0.00000000E+00
  0.00000000E+00  0.00000000E+00  0.00000000E+00
  0.00000000E+00  0.00000000E+00  0.00000000E+00
  0.00000000E+00  0.00000000E+00  0.00000000E+00
  0.00000000E+00  0.00000000E+00  0.00000000E+00
  0.00000000E+00  0.00000000E+00  0.00000000E+00
  0.00000000E+00  0.00000000E+00  0.00000000E+00
  0.00000000E+00  0.00000000E+00  0.00000000E+00
  0.00000000E+00  0.00000000E+00  0.00000000E+00
  0.00000000E+00  0.00000000E+00  0.00000000E+00
  0.00000000E+00  0.00000000E+00  0.00000000E+00
  0.00000000E+00  0.00000000E+00  0.00000000E+00
  0.00000000E+00  0.00000000E+00  0.00000000E+00
  0.00000000E+00  0.00000000E+00  0.00000000E+00
  0.00000000E+00  0.00000000E+00  0.00000000E+00
  0.00000000E+00  0.00000000E+00  0.00000000E+00
  0.00000000E+00  0.00000000E+00  0.00000000E+00
  0.00000000E+00  0.00000000E+00  0.00000000E+00
  0.00000000E+00  0.00000000E+00  0.00000000E+00
  0.00000000E+00  0.00000000E+00  0.00000000E+00
  0.00000000E+00  0.00000000E+00  0.00000000E+00
  0.00000000E+00  0.00000000E+00  0.00000000E+00
  0.00000000E+00  0.00000000E+00  0.00000000E+00
  0.00000000E+00  0.00000000E+00  0.00000000E+00
  0.00000000E+00  0.00000000E+00  0.00000000E+00
  0.00000000E+00  0.00000000E+00  0.00000000E+00
  0.00000000E+00  0.00000000E+00  0.00000000E+00
  0.00000000E+00  0.00000000E+00  0.00000000E+00
  0.00000000E+00  0.00000000E+00  0.00000000E+00
  0.00000000E+00  0.00000000E+00  0.00000000E+00
  0.00000000E+00  0.00000000E+00  0.00000000E+00
  0.00000000E+00  0.00000000E+00  0.00000000E+00
  0.00000000E+00  0.00000000E+00  0.00000000E+00
  0.00000000E+00  0.00000000E+00  0.00000000E+00
  0.00000000E+00  0.00000000E+00  0.00000000E+00
  0.00000000E+00  0.00000000E+00  0.00000000E+00
  0.00000000E+00  0.00000000E+00  0.00000000E+00
  0.00000000E+00  0.00000000E+00  0.00000000E+00
  0.00000000E+00  0.00000000E+00  0.00000000E+00
  0.00000000E+00  0.00000000E+00  0.00000000E+00
  0.00000000E+00  0.00000000E+00  0.00000000E+00
  0.00000000E+00  0.00000000E+00  0.00000000E+00
  0.00000000E+00  0.00000000E+00  0.00000000E+00
  0.00000000E+00  0.00000000E+00  0.00000000E+00
  0.00000000E+00  0.00000000E+00  0.00000000E+00
  0.00000000E+00  0.00000000E+00  0.00000000E+00
  0.00000000E+00  0.00000000E+00  0.00000000E+00
  0.00000000E+00  0.00000000E+00  0.00000000E+00
  0.00000000E+00  0.00000000E+00  0.00000000E+00
  0.00000000E+00  0.00000000E+00  0.00000000E+00
  0.00000000E+00  0.00000000E+00  0.00000000E+00
  0.00000000E+00  0.00000000E+00  0.00000000E+00
  0.00000000E+00  0.00000000E+00  0.00000000E+00
  0.00000000E+00  0.00000000E+00  0.00000000E+00
  0.00000000E+00  0.00000000E+00  0.00000000E+00
  0.00000000E+00  0.00000000E+00  0.00000000E+00
  0.00000000E+00  0.00000000E+00  0.00000000E+00
  0.00000000E+00  0.00000000E+00  0.00000000E+00
  0.00000000E+00  0.00000000E+00  0.00000000E+00
  0.00000000E+00  0.00000000E+00  0.00000000E+00
