generated by phonopy                    
    1.008164240426474     
    55.8258381721586616    0.0000000000000000   -0.0000000000000000
    -0.0000000000000000    4.9945195008377059    0.0000000000000004
     0.0000000000000000   -2.4972597504188534    4.3253807674222413
   Co   Ru
   104     8
Direct
  0.0196741855010704  0.3333333333333286  0.1666666666666714
  0.0196741855010704  0.3333333333333286  0.6666666666666714
  0.0196741855010704  0.8333333333333286  0.1666666666666714
  0.0196741855010704  0.8333333333333286  0.6666666666666714
  0.0548982565982922  0.1666666666666714  0.3333333333333286
  0.0548982565982922  0.1666666666666714  0.8333333333333286
  0.0548982565982922  0.6666666666666714  0.3333333333333286
  0.0548982565982922  0.6666666666666714  0.8333333333333286
  0.0903030142272163  0.3333333333333286  0.1666666666666714
  0.0903030142272163  0.3333333333333286  0.6666666666666714
  0.0903030142272163  0.8333333333333286  0.1666666666666714
  0.0903030142272163  0.8333333333333286  0.6666666666666714
  0.1257611032162116  0.1666666666666714  0.3333333333333286
  0.1257611032162116  0.1666666666666714  0.8333333333333286
  0.1257611032162116  0.6666666666666714  0.3333333333333286
  0.1257611032162116  0.6666666666666714  0.8333333333333286
  0.1612229048123708  0.3333333333333286  0.1666666666666714
  0.1612229048123708  0.3333333333333286  0.6666666666666714
  0.1612229048123708  0.8333333333333286  0.1666666666666714
  0.1612229048123708  0.8333333333333286  0.6666666666666714
  0.1966931483245558  0.1666666666666714  0.3333333333333286
  0.1966931483245558  0.1666666666666714  0.8333333333333286
  0.1966931483245558  0.6666666666666714  0.3333333333333286
  0.1966931483245558  0.6666666666666714  0.8333333333333286
  0.2321428571428541  0.3333333333333286  0.1666666666666714
  0.2321428571428541  0.3333333333333286  0.6666666666666714
  0.2321428571428541  0.8333333333333286  0.1666666666666714
  0.2321428571428541  0.8333333333333286  0.6666666666666714
  0.2675925659611595  0.1666666666666714  0.3333333333333286
  0.2675925659611595  0.1666666666666714  0.8333333333333286
  0.2675925659611595  0.6666666666666714  0.3333333333333286
  0.2675925659611595  0.6666666666666714  0.8333333333333286
  0.3030628094733444  0.3333333333333286  0.1666666666666714
  0.3030628094733444  0.3333333333333286  0.6666666666666714
  0.3030628094733444  0.8333333333333286  0.1666666666666714
  0.3030628094733444  0.8333333333333286  0.6666666666666714
  0.3385246110695037  0.1666666666666714  0.3333333333333286
  0.3385246110695037  0.1666666666666714  0.8333333333333286
  0.3385246110695037  0.6666666666666714  0.3333333333333286
  0.3385246110695037  0.6666666666666714  0.8333333333333286
  0.3739827000584989  0.3333333333333286  0.1666666666666714
  0.3739827000584989  0.3333333333333286  0.6666666666666714
  0.3739827000584989  0.8333333333333286  0.1666666666666714
  0.3739827000584989  0.8333333333333286  0.6666666666666714
  0.4093874576874301  0.1666666666666714  0.3333333333333286
  0.4093874576874301  0.1666666666666714  0.8333333333333286
  0.4093874576874301  0.6666666666666714  0.3333333333333286
  0.4093874576874301  0.6666666666666714  0.8333333333333286
  0.4446115287846378  0.3333333333333286  0.1666666666666714
  0.4446115287846378  0.3333333333333286  0.6666666666666714
  0.4446115287846378  0.8333333333333286  0.1666666666666714
  0.4446115287846378  0.8333333333333286  0.6666666666666714
  0.5196741855010705  0.3333333333333286  0.1666666666666714
  0.5196741855010705  0.3333333333333286  0.6666666666666714
  0.5196741855010705  0.8333333333333286  0.1666666666666714
  0.5196741855010705  0.8333333333333286  0.6666666666666714
  0.5548982565982993  0.1666666666666714  0.3333333333333286
  0.5548982565982993  0.1666666666666714  0.8333333333333286
  0.5548982565982993  0.6666666666666714  0.3333333333333286
  0.5548982565982993  0.6666666666666714  0.8333333333333286
  0.5903030142272234  0.3333333333333286  0.1666666666666714
  0.5903030142272234  0.3333333333333286  0.6666666666666714
  0.5903030142272234  0.8333333333333286  0.1666666666666714
  0.5903030142272234  0.8333333333333286  0.6666666666666714
  0.6257611032162115  0.1666666666666714  0.3333333333333286
  0.6257611032162115  0.1666666666666714  0.8333333333333286
  0.6257611032162115  0.6666666666666714  0.3333333333333286
  0.6257611032162115  0.6666666666666714  0.8333333333333286
  0.6612229048123707  0.3333333333333286  0.1666666666666714
  0.6612229048123707  0.3333333333333286  0.6666666666666714
  0.6612229048123707  0.8333333333333286  0.1666666666666714
  0.6612229048123707  0.8333333333333286  0.6666666666666714
  0.6966931483245630  0.1666666666666714  0.3333333333333286
  0.6966931483245630  0.1666666666666714  0.8333333333333286
  0.6966931483245630  0.6666666666666714  0.3333333333333286
  0.6966931483245630  0.6666666666666714  0.8333333333333286
  0.7321428571428541  0.3333333333333286  0.1666666666666714
  0.7321428571428541  0.3333333333333286  0.6666666666666714
  0.7321428571428541  0.8333333333333286  0.1666666666666714
  0.7321428571428541  0.8333333333333286  0.6666666666666714
  0.7675925659611523  0.1666666666666714  0.3333333333333286
  0.7675925659611523  0.1666666666666714  0.8333333333333286
  0.7675925659611523  0.6666666666666714  0.3333333333333286
  0.7675925659611523  0.6666666666666714  0.8333333333333286
  0.8030628094733446  0.3333333333333286  0.1666666666666714
  0.8030628094733446  0.3333333333333286  0.6666666666666714
  0.8030628094733446  0.8333333333333286  0.1666666666666714
  0.8030628094733446  0.8333333333333286  0.6666666666666714
  0.8385246110695038  0.1666666666666714  0.3333333333333286
  0.8385246110695038  0.1666666666666714  0.8333333333333286
  0.8385246110695038  0.6666666666666714  0.3333333333333286
  0.8385246110695038  0.6666666666666714  0.8333333333333286
  0.8739827000584919  0.3333333333333286  0.1666666666666714
  0.8739827000584919  0.3333333333333286  0.6666666666666714
  0.8739827000584919  0.8333333333333286  0.1666666666666714
  0.8739827000584919  0.8333333333333286  0.6666666666666714
  0.9093874576874160  0.1666666666666714  0.3333333333333286
  0.9093874576874160  0.1666666666666714  0.8333333333333286
  0.9093874576874160  0.6666666666666714  0.3333333333333286
  0.9093874576874160  0.6666666666666714  0.8333333333333286
  0.9446115287846448  0.3333333333333286  0.1666666666666714
  0.9446115287846448  0.3333333333333286  0.6666666666666714
  0.9446115287846448  0.8333333333333286  0.1666666666666714
  0.9446115287846448  0.8333333333333286  0.6666666666666714
  0.4821428571428541  0.1666666666666714  0.3333333333333286
  0.4821428571428541  0.1666666666666714  0.8333333333333286
  0.4821428571428541  0.6666666666666714  0.3333333333333286
  0.4821428571428541  0.6666666666666714  0.8333333333333286
  0.9821428571428541  0.1666666666666714  0.3333333333333286
  0.9821428571428541  0.1666666666666714  0.8333333333333286
  0.9821428571428541  0.6666666666666714  0.3333333333333286
  0.9821428571428541  0.6666666666666714  0.8333333333333286
 
  0.00000000E+00  0.00000000E+00  0.00000000E+00
  0.00000000E+00  0.00000000E+00  0.00000000E+00
  0.00000000E+00  0.00000000E+00  0.00000000E+00
  0.00000000E+00  0.00000000E+00  0.00000000E+00
  0.00000000E+00  0.00000000E+00  0.00000000E+00
  0.00000000E+00  0.00000000E+00  0.00000000E+00
  0.00000000E+00  0.00000000E+00  0.00000000E+00
  0.00000000E+00  0.00000000E+00  0.00000000E+00
  0.00000000E+00  0.00000000E+00  0.00000000E+00
  0.00000000E+00  0.00000000E+00  0.00000000E+00
  0.00000000E+00  0.00000000E+00  0.00000000E+00
  0.00000000E+00  0.00000000E+00  0.00000000E+00
  0.00000000E+00  0.00000000E+00  0.00000000E+00
  0.00000000E+00  0.00000000E+00  0.00000000E+00
  0.00000000E+00  0.00000000E+00  0.00000000E+00
  0.00000000E+00  0.00000000E+00  0.00000000E+00
  0.00000000E+00  0.00000000E+00  0.00000000E+00
  0.00000000E+00  0.00000000E+00  0.00000000E+00
  0.00000000E+00  0.00000000E+00  0.00000000E+00
  0.00000000E+00  0.00000000E+00  0.00000000E+00
  0.00000000E+00  0.00000000E+00  0.00000000E+00
  0.00000000E+00  0.00000000E+00  0.00000000E+00
  0.00000000E+00  0.00000000E+00  0.00000000E+00
  0.00000000E+00  0.00000000E+00  0.00000000E+00
  0.00000000E+00  0.00000000E+00  0.00000000E+00
  0.00000000E+00  0.00000000E+00  0.00000000E+00
  0.00000000E+00  0.00000000E+00  0.00000000E+00
  0.00000000E+00  0.00000000E+00  0.00000000E+00
  0.00000000E+00  0.00000000E+00  0.00000000E+00
  0.00000000E+00  0.00000000E+00  0.00000000E+00
  0.00000000E+00  0.00000000E+00  0.00000000E+00
  0.00000000E+00  0.00000000E+00  0.00000000E+00
  0.00000000E+00  0.00000000E+00  0.00000000E+00
  0.00000000E+00  0.00000000E+00  0.00000000E+00
  0.00000000E+00  0.00000000E+00  0.00000000E+00
  0.00000000E+00  0.00000000E+00  0.00000000E+00
  0.00000000E+00  0.00000000E+00  0.00000000E+00
  0.00000000E+00  0.00000000E+00  0.00000000E+00
  0.00000000E+00  0.00000000E+00  0.00000000E+00
  0.00000000E+00  0.00000000E+00  0.00000000E+00
  0.00000000E+00  0.00000000E+00  0.00000000E+00
  0.00000000E+00  0.00000000E+00  0.00000000E+00
  0.00000000E+00  0.00000000E+00  0.00000000E+00
  0.00000000E+00  0.00000000E+00  0.00000000E+00
  0.00000000E+00  0.00000000E+00  0.00000000E+00
  0.00000000E+00  0.00000000E+00  0.00000000E+00
  0.00000000E+00  0.00000000E+00  0.00000000E+00
  0.00000000E+00  0.00000000E+00  0.00000000E+00
  0.00000000E+00  0.00000000E+00  0.00000000E+00
  0.00000000E+00  0.00000000E+00  0.00000000E+00
  0.00000000E+00  0.00000000E+00  0.00000000E+00
  0.00000000E+00  0.00000000E+00  0.00000000E+00
  0.00000000E+00  0.00000000E+00  0.00000000E+00
  0.00000000E+00  0.00000000E+00  0.00000000E+00
  0.00000000E+00  0.00000000E+00  0.00000000E+00
  0.00000000E+00  0.00000000E+00  0.00000000E+00
  0.00000000E+00  0.00000000E+00  0.00000000E+00
  0.00000000E+00  0.00000000E+00  0.00000000E+00
  0.00000000E+00  0.00000000E+00  0.00000000E+00
  0.00000000E+00  0.00000000E+00  0.00000000E+00
  0.00000000E+00  0.00000000E+00  0.00000000E+00
  0.00000000E+00  0.00000000E+00  0.00000000E+00
  0.00000000E+00  0.00000000E+00  0.00000000E+00
  0.00000000E+00  0.00000000E+00  0.00000000E+00
  0.00000000E+00  0.00000000E+00  0.00000000E+00
  0.00000000E+00  0.00000000E+00  0.00000000E+00
  0.00000000E+00  0.00000000E+00  0.00000000E+00
  0.00000000E+00  0.00000000E+00  0.00000000E+00
  0.00000000E+00  0.00000000E+00  0.00000000E+00
  0.00000000E+00  0.00000000E+00  0.00000000E+00
  0.00000000E+00  0.00000000E+00  0.00000000E+00
  0.00000000E+00  0.00000000E+00  0.00000000E+00
  0.00000000E+00  0.00000000E+00  0.00000000E+00
  0.00000000E+00  0.00000000E+00  0.00000000E+00
  0.00000000E+00  0.00000000E+00  0.00000000E+00
  0.00000000E+00  0.00000000E+00  0.00000000E+00
  0.00000000E+00  0.00000000E+00  0.00000000E+00
  0.00000000E+00  0.00000000E+00  0.00000000E+00
  0.00000000E+00  0.00000000E+00  0.00000000E+00
  0.00000000E+00  0.00000000E+00  0.00000000E+00
  0.00000000E+00  0.00000000E+00  0.00000000E+00
  0.00000000E+00  0.00000000E+00  0.00000000E+00
  0.00000000E+00  0.00000000E+00  0.00000000E+00
  0.00000000E+00  0.00000000E+00  0.00000000E+00
  0.00000000E+00  0.00000000E+00  0.00000000E+00
  0.00000000E+00  0.00000000E+00  0.00000000E+00
  0.00000000E+00  0.00000000E+00  0.00000000E+00
  0.00000000E+00  0.00000000E+00  0.00000000E+00
  0.00000000E+00  0.00000000E+00  0.00000000E+00
  0.00000000E+00  0.00000000E+00  0.00000000E+00
  0.00000000E+00  0.00000000E+00  0.00000000E+00
  0.00000000E+00  0.00000000E+00  0.00000000E+00
  0.00000000E+00  0.00000000E+00  0.00000000E+00
  0.00000000E+00  0.00000000E+00  0.00000000E+00
  0.00000000E+00  0.00000000E+00  0.00000000E+00
  0.00000000E+00  0.00000000E+00  0.00000000E+00
  0.00000000E+00  0.00000000E+00  0.00000000E+00
  0.00000000E+00  0.00000000E+00  0.00000000E+00
  0.00000000E+00  0.00000000E+00  0.00000000E+00
  0.00000000E+00  0.00000000E+00  0.00000000E+00
  0.00000000E+00  0.00000000E+00  0.00000000E+00
  0.00000000E+00  0.00000000E+00  0.00000000E+00
  0.00000000E+00  0.00000000E+00  0.00000000E+00
  0.00000000E+00  0.00000000E+00  0.00000000E+00
  0.00000000E+00  0.00000000E+00  0.00000000E+00
  0.00000000E+00  0.00000000E+00  0.00000000E+00
  0.00000000E+00  0.00000000E+00  0.00000000E+00
  0.00000000E+00  0.00000000E+00  0.00000000E+00
  0.00000000E+00  0.00000000E+00  0.00000000E+00
  0.00000000E+00  0.00000000E+00  0.00000000E+00
  0.00000000E+00  0.00000000E+00  0.00000000E+00
  0.00000000E+00  0.00000000E+00  0.00000000E+00
