generated by phonopy                    
    1.004758254194724     
    55.8126962309890331    0.0000000000000000    0.0000000000000000
     0.0000000000000000    4.9933749105187202    0.0000000000000000
    -0.0000000000000000   -2.4966874552593610    4.3243895231290663
   Co   Ru
   104     8
Direct
  0.0197122526804089  0.3333333333333286  0.1666666666666714
  0.0197122526804089  0.3333333333333286  0.6666666666666714
  0.0197122526804089  0.8333333333333286  0.1666666666666714
  0.0197122526804089  0.8333333333333286  0.6666666666666714
  0.0549328467380920  0.1666666666666714  0.3333333333333286
  0.0549328467380920  0.1666666666666714  0.8333333333333286
  0.0549328467380920  0.6666666666666714  0.3333333333333286
  0.0549328467380920  0.6666666666666714  0.8333333333333286
  0.0903257648399125  0.3333333333333286  0.1666666666666714
  0.0903257648399125  0.3333333333333286  0.6666666666666714
  0.0903257648399125  0.8333333333333286  0.1666666666666714
  0.0903257648399125  0.8333333333333286  0.6666666666666714
  0.1257791641941210  0.1666666666666714  0.3333333333333286
  0.1257791641941210  0.1666666666666714  0.8333333333333286
  0.1257791641941210  0.6666666666666714  0.3333333333333286
  0.1257791641941210  0.6666666666666714  0.8333333333333286
  0.1612325385926568  0.3333333333333286  0.1666666666666714
  0.1612325385926568  0.3333333333333286  0.6666666666666714
  0.1612325385926568  0.8333333333333286  0.1666666666666714
  0.1612325385926568  0.8333333333333286  0.6666666666666714
  0.1966982784133701  0.1666666666666714  0.3333333333333286
  0.1966982784133701  0.1666666666666714  0.8333333333333286
  0.1966982784133701  0.6666666666666714  0.3333333333333286
  0.1966982784133701  0.6666666666666714  0.8333333333333286
  0.2321428571428541  0.3333333333333286  0.1666666666666714
  0.2321428571428541  0.3333333333333286  0.6666666666666714
  0.2321428571428541  0.8333333333333286  0.1666666666666714
  0.2321428571428541  0.8333333333333286  0.6666666666666714
  0.2675874358723452  0.1666666666666714  0.3333333333333286
  0.2675874358723452  0.1666666666666714  0.8333333333333286
  0.2675874358723452  0.6666666666666714  0.3333333333333286
  0.2675874358723452  0.6666666666666714  0.8333333333333286
  0.3030531756930582  0.3333333333333286  0.1666666666666714
  0.3030531756930582  0.3333333333333286  0.6666666666666714
  0.3030531756930582  0.8333333333333286  0.1666666666666714
  0.3030531756930582  0.8333333333333286  0.6666666666666714
  0.3385065500915942  0.1666666666666714  0.3333333333333286
  0.3385065500915942  0.1666666666666714  0.8333333333333286
  0.3385065500915942  0.6666666666666714  0.3333333333333286
  0.3385065500915942  0.6666666666666714  0.8333333333333286
  0.3739599494458028  0.3333333333333286  0.1666666666666714
  0.3739599494458028  0.3333333333333286  0.6666666666666714
  0.3739599494458028  0.8333333333333286  0.1666666666666714
  0.3739599494458028  0.8333333333333286  0.6666666666666714
  0.4093528675476305  0.1666666666666714  0.3333333333333286
  0.4093528675476305  0.1666666666666714  0.8333333333333286
  0.4093528675476305  0.6666666666666714  0.3333333333333286
  0.4093528675476305  0.6666666666666714  0.8333333333333286
  0.4445734616053066  0.3333333333333286  0.1666666666666714
  0.4445734616053066  0.3333333333333286  0.6666666666666714
  0.4445734616053066  0.8333333333333286  0.1666666666666714
  0.4445734616053066  0.8333333333333286  0.6666666666666714
  0.5197122526804088  0.3333333333333286  0.1666666666666714
  0.5197122526804088  0.3333333333333286  0.6666666666666714
  0.5197122526804088  0.8333333333333286  0.1666666666666714
  0.5197122526804088  0.8333333333333286  0.6666666666666714
  0.5549328467380918  0.1666666666666714  0.3333333333333286
  0.5549328467380918  0.1666666666666714  0.8333333333333286
  0.5549328467380918  0.6666666666666714  0.3333333333333286
  0.5549328467380918  0.6666666666666714  0.8333333333333286
  0.5903257648399125  0.3333333333333286  0.1666666666666714
  0.5903257648399125  0.3333333333333286  0.6666666666666714
  0.5903257648399125  0.8333333333333286  0.1666666666666714
  0.5903257648399125  0.8333333333333286  0.6666666666666714
  0.6257791641941208  0.1666666666666714  0.3333333333333286
  0.6257791641941208  0.1666666666666714  0.8333333333333286
  0.6257791641941208  0.6666666666666714  0.3333333333333286
  0.6257791641941208  0.6666666666666714  0.8333333333333286
  0.6612325385926564  0.3333333333333286  0.1666666666666714
  0.6612325385926564  0.3333333333333286  0.6666666666666714
  0.6612325385926564  0.8333333333333286  0.1666666666666714
  0.6612325385926564  0.8333333333333286  0.6666666666666714
  0.6966982784133772  0.1666666666666714  0.3333333333333286
  0.6966982784133772  0.1666666666666714  0.8333333333333286
  0.6966982784133772  0.6666666666666714  0.3333333333333286
  0.6966982784133772  0.6666666666666714  0.8333333333333286
  0.7321428571428541  0.3333333333333286  0.1666666666666714
  0.7321428571428541  0.3333333333333286  0.6666666666666714
  0.7321428571428541  0.8333333333333286  0.1666666666666714
  0.7321428571428541  0.8333333333333286  0.6666666666666714
  0.7675874358723381  0.1666666666666714  0.3333333333333286
  0.7675874358723381  0.1666666666666714  0.8333333333333286
  0.7675874358723381  0.6666666666666714  0.3333333333333286
  0.7675874358723381  0.6666666666666714  0.8333333333333286
  0.8030531756930589  0.3333333333333286  0.1666666666666714
  0.8030531756930589  0.3333333333333286  0.6666666666666714
  0.8030531756930589  0.8333333333333286  0.1666666666666714
  0.8030531756930589  0.8333333333333286  0.6666666666666714
  0.8385065500915945  0.1666666666666714  0.3333333333333286
  0.8385065500915945  0.1666666666666714  0.8333333333333286
  0.8385065500915945  0.6666666666666714  0.3333333333333286
  0.8385065500915945  0.6666666666666714  0.8333333333333286
  0.8739599494458028  0.3333333333333286  0.1666666666666714
  0.8739599494458028  0.3333333333333286  0.6666666666666714
  0.8739599494458028  0.8333333333333286  0.1666666666666714
  0.8739599494458028  0.8333333333333286  0.6666666666666714
  0.9093528675476235  0.1666666666666714  0.3333333333333286
  0.9093528675476235  0.1666666666666714  0.8333333333333286
  0.9093528675476235  0.6666666666666714  0.3333333333333286
  0.9093528675476235  0.6666666666666714  0.8333333333333286
  0.9445734616053065  0.3333333333333286  0.1666666666666714
  0.9445734616053065  0.3333333333333286  0.6666666666666714
  0.9445734616053065  0.8333333333333286  0.1666666666666714
  0.9445734616053065  0.8333333333333286  0.6666666666666714
  0.4821428571428541  0.1666666666666714  0.3333333333333286
  0.4821428571428541  0.1666666666666714  0.8333333333333286
  0.4821428571428541  0.6666666666666714  0.3333333333333286
  0.4821428571428541  0.6666666666666714  0.8333333333333286
  0.9821428571428541  0.1666666666666714  0.3333333333333286
  0.9821428571428541  0.1666666666666714  0.8333333333333286
  0.9821428571428541  0.6666666666666714  0.3333333333333286
  0.9821428571428541  0.6666666666666714  0.8333333333333286
 
  0.00000000E+00  0.00000000E+00  0.00000000E+00
  0.00000000E+00  0.00000000E+00  0.00000000E+00
  0.00000000E+00  0.00000000E+00  0.00000000E+00
  0.00000000E+00  0.00000000E+00  0.00000000E+00
  0.00000000E+00  0.00000000E+00  0.00000000E+00
  0.00000000E+00  0.00000000E+00  0.00000000E+00
  0.00000000E+00  0.00000000E+00  0.00000000E+00
  0.00000000E+00  0.00000000E+00  0.00000000E+00
  0.00000000E+00  0.00000000E+00  0.00000000E+00
  0.00000000E+00  0.00000000E+00  0.00000000E+00
  0.00000000E+00  0.00000000E+00  0.00000000E+00
  0.00000000E+00  0.00000000E+00  0.00000000E+00
  0.00000000E+00  0.00000000E+00  0.00000000E+00
  0.00000000E+00  0.00000000E+00  0.00000000E+00
  0.00000000E+00  0.00000000E+00  0.00000000E+00
  0.00000000E+00  0.00000000E+00  0.00000000E+00
  0.00000000E+00  0.00000000E+00  0.00000000E+00
  0.00000000E+00  0.00000000E+00  0.00000000E+00
  0.00000000E+00  0.00000000E+00  0.00000000E+00
  0.00000000E+00  0.00000000E+00  0.00000000E+00
  0.00000000E+00  0.00000000E+00  0.00000000E+00
  0.00000000E+00  0.00000000E+00  0.00000000E+00
  0.00000000E+00  0.00000000E+00  0.00000000E+00
  0.00000000E+00  0.00000000E+00  0.00000000E+00
  0.00000000E+00  0.00000000E+00  0.00000000E+00
  0.00000000E+00  0.00000000E+00  0.00000000E+00
  0.00000000E+00  0.00000000E+00  0.00000000E+00
  0.00000000E+00  0.00000000E+00  0.00000000E+00
  0.00000000E+00  0.00000000E+00  0.00000000E+00
  0.00000000E+00  0.00000000E+00  0.00000000E+00
  0.00000000E+00  0.00000000E+00  0.00000000E+00
  0.00000000E+00  0.00000000E+00  0.00000000E+00
  0.00000000E+00  0.00000000E+00  0.00000000E+00
  0.00000000E+00  0.00000000E+00  0.00000000E+00
  0.00000000E+00  0.00000000E+00  0.00000000E+00
  0.00000000E+00  0.00000000E+00  0.00000000E+00
  0.00000000E+00  0.00000000E+00  0.00000000E+00
  0.00000000E+00  0.00000000E+00  0.00000000E+00
  0.00000000E+00  0.00000000E+00  0.00000000E+00
  0.00000000E+00  0.00000000E+00  0.00000000E+00
  0.00000000E+00  0.00000000E+00  0.00000000E+00
  0.00000000E+00  0.00000000E+00  0.00000000E+00
  0.00000000E+00  0.00000000E+00  0.00000000E+00
  0.00000000E+00  0.00000000E+00  0.00000000E+00
  0.00000000E+00  0.00000000E+00  0.00000000E+00
  0.00000000E+00  0.00000000E+00  0.00000000E+00
  0.00000000E+00  0.00000000E+00  0.00000000E+00
  0.00000000E+00  0.00000000E+00  0.00000000E+00
  0.00000000E+00  0.00000000E+00  0.00000000E+00
  0.00000000E+00  0.00000000E+00  0.00000000E+00
  0.00000000E+00  0.00000000E+00  0.00000000E+00
  0.00000000E+00  0.00000000E+00  0.00000000E+00
  0.00000000E+00  0.00000000E+00  0.00000000E+00
  0.00000000E+00  0.00000000E+00  0.00000000E+00
  0.00000000E+00  0.00000000E+00  0.00000000E+00
  0.00000000E+00  0.00000000E+00  0.00000000E+00
  0.00000000E+00  0.00000000E+00  0.00000000E+00
  0.00000000E+00  0.00000000E+00  0.00000000E+00
  0.00000000E+00  0.00000000E+00  0.00000000E+00
  0.00000000E+00  0.00000000E+00  0.00000000E+00
  0.00000000E+00  0.00000000E+00  0.00000000E+00
  0.00000000E+00  0.00000000E+00  0.00000000E+00
  0.00000000E+00  0.00000000E+00  0.00000000E+00
  0.00000000E+00  0.00000000E+00  0.00000000E+00
  0.00000000E+00  0.00000000E+00  0.00000000E+00
  0.00000000E+00  0.00000000E+00  0.00000000E+00
  0.00000000E+00  0.00000000E+00  0.00000000E+00
  0.00000000E+00  0.00000000E+00  0.00000000E+00
  0.00000000E+00  0.00000000E+00  0.00000000E+00
  0.00000000E+00  0.00000000E+00  0.00000000E+00
  0.00000000E+00  0.00000000E+00  0.00000000E+00
  0.00000000E+00  0.00000000E+00  0.00000000E+00
  0.00000000E+00  0.00000000E+00  0.00000000E+00
  0.00000000E+00  0.00000000E+00  0.00000000E+00
  0.00000000E+00  0.00000000E+00  0.00000000E+00
  0.00000000E+00  0.00000000E+00  0.00000000E+00
  0.00000000E+00  0.00000000E+00  0.00000000E+00
  0.00000000E+00  0.00000000E+00  0.00000000E+00
  0.00000000E+00  0.00000000E+00  0.00000000E+00
  0.00000000E+00  0.00000000E+00  0.00000000E+00
  0.00000000E+00  0.00000000E+00  0.00000000E+00
  0.00000000E+00  0.00000000E+00  0.00000000E+00
  0.00000000E+00  0.00000000E+00  0.00000000E+00
  0.00000000E+00  0.00000000E+00  0.00000000E+00
  0.00000000E+00  0.00000000E+00  0.00000000E+00
  0.00000000E+00  0.00000000E+00  0.00000000E+00
  0.00000000E+00  0.00000000E+00  0.00000000E+00
  0.00000000E+00  0.00000000E+00  0.00000000E+00
  0.00000000E+00  0.00000000E+00  0.00000000E+00
  0.00000000E+00  0.00000000E+00  0.00000000E+00
  0.00000000E+00  0.00000000E+00  0.00000000E+00
  0.00000000E+00  0.00000000E+00  0.00000000E+00
  0.00000000E+00  0.00000000E+00  0.00000000E+00
  0.00000000E+00  0.00000000E+00  0.00000000E+00
  0.00000000E+00  0.00000000E+00  0.00000000E+00
  0.00000000E+00  0.00000000E+00  0.00000000E+00
  0.00000000E+00  0.00000000E+00  0.00000000E+00
  0.00000000E+00  0.00000000E+00  0.00000000E+00
  0.00000000E+00  0.00000000E+00  0.00000000E+00
  0.00000000E+00  0.00000000E+00  0.00000000E+00
  0.00000000E+00  0.00000000E+00  0.00000000E+00
  0.00000000E+00  0.00000000E+00  0.00000000E+00
  0.00000000E+00  0.00000000E+00  0.00000000E+00
  0.00000000E+00  0.00000000E+00  0.00000000E+00
  0.00000000E+00  0.00000000E+00  0.00000000E+00
  0.00000000E+00  0.00000000E+00  0.00000000E+00
  0.00000000E+00  0.00000000E+00  0.00000000E+00
  0.00000000E+00  0.00000000E+00  0.00000000E+00
  0.00000000E+00  0.00000000E+00  0.00000000E+00
  0.00000000E+00  0.00000000E+00  0.00000000E+00
  0.00000000E+00  0.00000000E+00  0.00000000E+00
  0.00000000E+00  0.00000000E+00  0.00000000E+00
