generated by phonopy                    
    1.011547367259745     
    55.8154572650432286    0.0000000000000000    0.0000000000000000
     0.0000000000000000    4.9949839351991896    0.0000000000000005
    -0.0000000000000000   -2.4974919675995952    4.3257829793776734
   Co   Ru
   104     8
Direct
  0.0196548706938919  0.3333333333333286  0.1666666666666714
  0.0196548706938919  0.3333333333333286  0.6666666666666714
  0.0196548706938919  0.8333333333333286  0.1666666666666714
  0.0196548706938919  0.8333333333333286  0.6666666666666714
  0.0548986100311917  0.1666666666666714  0.3333333333333286
  0.0548986100311917  0.1666666666666714  0.8333333333333286
  0.0548986100311917  0.6666666666666714  0.3333333333333286
  0.0548986100311917  0.6666666666666714  0.8333333333333286
  0.0903147026136006  0.3333333333333286  0.1666666666666714
  0.0903147026136006  0.3333333333333286  0.6666666666666714
  0.0903147026136006  0.8333333333333286  0.1666666666666714
  0.0903147026136006  0.8333333333333286  0.6666666666666714
  0.1257669359858669  0.1666666666666714  0.3333333333333286
  0.1257669359858669  0.1666666666666714  0.8333333333333286
  0.1257669359858669  0.6666666666666714  0.3333333333333286
  0.1257669359858669  0.6666666666666714  0.8333333333333286
  0.1612324045772133  0.3333333333333286  0.1666666666666714
  0.1612324045772133  0.3333333333333286  0.6666666666666714
  0.1612324045772133  0.8333333333333286  0.1666666666666714
  0.1612324045772133  0.8333333333333286  0.6666666666666714
  0.1966961540833664  0.1666666666666714  0.3333333333333286
  0.1966961540833664  0.1666666666666714  0.8333333333333286
  0.1966961540833664  0.6666666666666714  0.3333333333333286
  0.1966961540833664  0.6666666666666714  0.8333333333333286
  0.2321428571428541  0.3333333333333286  0.1666666666666714
  0.2321428571428541  0.3333333333333286  0.6666666666666714
  0.2321428571428541  0.8333333333333286  0.1666666666666714
  0.2321428571428541  0.8333333333333286  0.6666666666666714
  0.2675895602023488  0.1666666666666714  0.3333333333333286
  0.2675895602023488  0.1666666666666714  0.8333333333333286
  0.2675895602023488  0.6666666666666714  0.3333333333333286
  0.2675895602023488  0.6666666666666714  0.8333333333333286
  0.3030533097085020  0.3333333333333286  0.1666666666666714
  0.3030533097085020  0.3333333333333286  0.6666666666666714
  0.3030533097085020  0.8333333333333286  0.1666666666666714
  0.3030533097085020  0.8333333333333286  0.6666666666666714
  0.3385187782998484  0.1666666666666714  0.3333333333333286
  0.3385187782998484  0.1666666666666714  0.8333333333333286
  0.3385187782998484  0.6666666666666714  0.3333333333333286
  0.3385187782998484  0.6666666666666714  0.8333333333333286
  0.3739710116721146  0.3333333333333286  0.1666666666666714
  0.3739710116721146  0.3333333333333286  0.6666666666666714
  0.3739710116721146  0.8333333333333286  0.1666666666666714
  0.3739710116721146  0.8333333333333286  0.6666666666666714
  0.4093871042545308  0.1666666666666714  0.3333333333333286
  0.4093871042545308  0.1666666666666714  0.8333333333333286
  0.4093871042545308  0.6666666666666714  0.3333333333333286
  0.4093871042545308  0.6666666666666714  0.8333333333333286
  0.4446308435918163  0.3333333333333286  0.1666666666666714
  0.4446308435918163  0.3333333333333286  0.6666666666666714
  0.4446308435918163  0.8333333333333286  0.1666666666666714
  0.4446308435918163  0.8333333333333286  0.6666666666666714
  0.5196548706938917  0.3333333333333286  0.1666666666666714
  0.5196548706938917  0.3333333333333286  0.6666666666666714
  0.5196548706938917  0.8333333333333286  0.1666666666666714
  0.5196548706938917  0.8333333333333286  0.6666666666666714
  0.5548986100311987  0.1666666666666714  0.3333333333333286
  0.5548986100311987  0.1666666666666714  0.8333333333333286
  0.5548986100311987  0.6666666666666714  0.3333333333333286
  0.5548986100311987  0.6666666666666714  0.8333333333333286
  0.5903147026136075  0.3333333333333286  0.1666666666666714
  0.5903147026136075  0.3333333333333286  0.6666666666666714
  0.5903147026136075  0.8333333333333286  0.1666666666666714
  0.5903147026136075  0.8333333333333286  0.6666666666666714
  0.6257669359858669  0.1666666666666714  0.3333333333333286
  0.6257669359858669  0.1666666666666714  0.8333333333333286
  0.6257669359858669  0.6666666666666714  0.3333333333333286
  0.6257669359858669  0.6666666666666714  0.8333333333333286
  0.6612324045772131  0.3333333333333286  0.1666666666666714
  0.6612324045772131  0.3333333333333286  0.6666666666666714
  0.6612324045772131  0.8333333333333286  0.1666666666666714
  0.6612324045772131  0.8333333333333286  0.6666666666666714
  0.6966961540833736  0.1666666666666714  0.3333333333333286
  0.6966961540833736  0.1666666666666714  0.8333333333333286
  0.6966961540833736  0.6666666666666714  0.3333333333333286
  0.6966961540833736  0.6666666666666714  0.8333333333333286
  0.7321428571428541  0.3333333333333286  0.1666666666666714
  0.7321428571428541  0.3333333333333286  0.6666666666666714
  0.7321428571428541  0.8333333333333286  0.1666666666666714
  0.7321428571428541  0.8333333333333286  0.6666666666666714
  0.7675895602023417  0.1666666666666714  0.3333333333333286
  0.7675895602023417  0.1666666666666714  0.8333333333333286
  0.7675895602023417  0.6666666666666714  0.3333333333333286
  0.7675895602023417  0.6666666666666714  0.8333333333333286
  0.8030533097085022  0.3333333333333286  0.1666666666666714
  0.8030533097085022  0.3333333333333286  0.6666666666666714
  0.8030533097085022  0.8333333333333286  0.1666666666666714
  0.8030533097085022  0.8333333333333286  0.6666666666666714
  0.8385187782998484  0.1666666666666714  0.3333333333333286
  0.8385187782998484  0.1666666666666714  0.8333333333333286
  0.8385187782998484  0.6666666666666714  0.3333333333333286
  0.8385187782998484  0.6666666666666714  0.8333333333333286
  0.8739710116721078  0.3333333333333286  0.1666666666666714
  0.8739710116721078  0.3333333333333286  0.6666666666666714
  0.8739710116721078  0.8333333333333286  0.1666666666666714
  0.8739710116721078  0.8333333333333286  0.6666666666666714
  0.9093871042545166  0.1666666666666714  0.3333333333333286
  0.9093871042545166  0.1666666666666714  0.8333333333333286
  0.9093871042545166  0.6666666666666714  0.3333333333333286
  0.9093871042545166  0.6666666666666714  0.8333333333333286
  0.9446308435918236  0.3333333333333286  0.1666666666666714
  0.9446308435918236  0.3333333333333286  0.6666666666666714
  0.9446308435918236  0.8333333333333286  0.1666666666666714
  0.9446308435918236  0.8333333333333286  0.6666666666666714
  0.4821428571428541  0.1666666666666714  0.3333333333333286
  0.4821428571428541  0.1666666666666714  0.8333333333333286
  0.4821428571428541  0.6666666666666714  0.3333333333333286
  0.4821428571428541  0.6666666666666714  0.8333333333333286
  0.9821428571428541  0.1666666666666714  0.3333333333333286
  0.9821428571428541  0.1666666666666714  0.8333333333333286
  0.9821428571428541  0.6666666666666714  0.3333333333333286
  0.9821428571428541  0.6666666666666714  0.8333333333333286
 
  0.00000000E+00  0.00000000E+00  0.00000000E+00
  0.00000000E+00  0.00000000E+00  0.00000000E+00
  0.00000000E+00  0.00000000E+00  0.00000000E+00
  0.00000000E+00  0.00000000E+00  0.00000000E+00
  0.00000000E+00  0.00000000E+00  0.00000000E+00
  0.00000000E+00  0.00000000E+00  0.00000000E+00
  0.00000000E+00  0.00000000E+00  0.00000000E+00
  0.00000000E+00  0.00000000E+00  0.00000000E+00
  0.00000000E+00  0.00000000E+00  0.00000000E+00
  0.00000000E+00  0.00000000E+00  0.00000000E+00
  0.00000000E+00  0.00000000E+00  0.00000000E+00
  0.00000000E+00  0.00000000E+00  0.00000000E+00
  0.00000000E+00  0.00000000E+00  0.00000000E+00
  0.00000000E+00  0.00000000E+00  0.00000000E+00
  0.00000000E+00  0.00000000E+00  0.00000000E+00
  0.00000000E+00  0.00000000E+00  0.00000000E+00
  0.00000000E+00  0.00000000E+00  0.00000000E+00
  0.00000000E+00  0.00000000E+00  0.00000000E+00
  0.00000000E+00  0.00000000E+00  0.00000000E+00
  0.00000000E+00  0.00000000E+00  0.00000000E+00
  0.00000000E+00  0.00000000E+00  0.00000000E+00
  0.00000000E+00  0.00000000E+00  0.00000000E+00
  0.00000000E+00  0.00000000E+00  0.00000000E+00
  0.00000000E+00  0.00000000E+00  0.00000000E+00
  0.00000000E+00  0.00000000E+00  0.00000000E+00
  0.00000000E+00  0.00000000E+00  0.00000000E+00
  0.00000000E+00  0.00000000E+00  0.00000000E+00
  0.00000000E+00  0.00000000E+00  0.00000000E+00
  0.00000000E+00  0.00000000E+00  0.00000000E+00
  0.00000000E+00  0.00000000E+00  0.00000000E+00
  0.00000000E+00  0.00000000E+00  0.00000000E+00
  0.00000000E+00  0.00000000E+00  0.00000000E+00
  0.00000000E+00  0.00000000E+00  0.00000000E+00
  0.00000000E+00  0.00000000E+00  0.00000000E+00
  0.00000000E+00  0.00000000E+00  0.00000000E+00
  0.00000000E+00  0.00000000E+00  0.00000000E+00
  0.00000000E+00  0.00000000E+00  0.00000000E+00
  0.00000000E+00  0.00000000E+00  0.00000000E+00
  0.00000000E+00  0.00000000E+00  0.00000000E+00
  0.00000000E+00  0.00000000E+00  0.00000000E+00
  0.00000000E+00  0.00000000E+00  0.00000000E+00
  0.00000000E+00  0.00000000E+00  0.00000000E+00
  0.00000000E+00  0.00000000E+00  0.00000000E+00
  0.00000000E+00  0.00000000E+00  0.00000000E+00
  0.00000000E+00  0.00000000E+00  0.00000000E+00
  0.00000000E+00  0.00000000E+00  0.00000000E+00
  0.00000000E+00  0.00000000E+00  0.00000000E+00
  0.00000000E+00  0.00000000E+00  0.00000000E+00
  0.00000000E+00  0.00000000E+00  0.00000000E+00
  0.00000000E+00  0.00000000E+00  0.00000000E+00
  0.00000000E+00  0.00000000E+00  0.00000000E+00
  0.00000000E+00  0.00000000E+00  0.00000000E+00
  0.00000000E+00  0.00000000E+00  0.00000000E+00
  0.00000000E+00  0.00000000E+00  0.00000000E+00
  0.00000000E+00  0.00000000E+00  0.00000000E+00
  0.00000000E+00  0.00000000E+00  0.00000000E+00
  0.00000000E+00  0.00000000E+00  0.00000000E+00
  0.00000000E+00  0.00000000E+00  0.00000000E+00
  0.00000000E+00  0.00000000E+00  0.00000000E+00
  0.00000000E+00  0.00000000E+00  0.00000000E+00
  0.00000000E+00  0.00000000E+00  0.00000000E+00
  0.00000000E+00  0.00000000E+00  0.00000000E+00
  0.00000000E+00  0.00000000E+00  0.00000000E+00
  0.00000000E+00  0.00000000E+00  0.00000000E+00
  0.00000000E+00  0.00000000E+00  0.00000000E+00
  0.00000000E+00  0.00000000E+00  0.00000000E+00
  0.00000000E+00  0.00000000E+00  0.00000000E+00
  0.00000000E+00  0.00000000E+00  0.00000000E+00
  0.00000000E+00  0.00000000E+00  0.00000000E+00
  0.00000000E+00  0.00000000E+00  0.00000000E+00
  0.00000000E+00  0.00000000E+00  0.00000000E+00
  0.00000000E+00  0.00000000E+00  0.00000000E+00
  0.00000000E+00  0.00000000E+00  0.00000000E+00
  0.00000000E+00  0.00000000E+00  0.00000000E+00
  0.00000000E+00  0.00000000E+00  0.00000000E+00
  0.00000000E+00  0.00000000E+00  0.00000000E+00
  0.00000000E+00  0.00000000E+00  0.00000000E+00
  0.00000000E+00  0.00000000E+00  0.00000000E+00
  0.00000000E+00  0.00000000E+00  0.00000000E+00
  0.00000000E+00  0.00000000E+00  0.00000000E+00
  0.00000000E+00  0.00000000E+00  0.00000000E+00
  0.00000000E+00  0.00000000E+00  0.00000000E+00
  0.00000000E+00  0.00000000E+00  0.00000000E+00
  0.00000000E+00  0.00000000E+00  0.00000000E+00
  0.00000000E+00  0.00000000E+00  0.00000000E+00
  0.00000000E+00  0.00000000E+00  0.00000000E+00
  0.00000000E+00  0.00000000E+00  0.00000000E+00
  0.00000000E+00  0.00000000E+00  0.00000000E+00
  0.00000000E+00  0.00000000E+00  0.00000000E+00
  0.00000000E+00  0.00000000E+00  0.00000000E+00
  0.00000000E+00  0.00000000E+00  0.00000000E+00
  0.00000000E+00  0.00000000E+00  0.00000000E+00
  0.00000000E+00  0.00000000E+00  0.00000000E+00
  0.00000000E+00  0.00000000E+00  0.00000000E+00
  0.00000000E+00  0.00000000E+00  0.00000000E+00
  0.00000000E+00  0.00000000E+00  0.00000000E+00
  0.00000000E+00  0.00000000E+00  0.00000000E+00
  0.00000000E+00  0.00000000E+00  0.00000000E+00
  0.00000000E+00  0.00000000E+00  0.00000000E+00
  0.00000000E+00  0.00000000E+00  0.00000000E+00
  0.00000000E+00  0.00000000E+00  0.00000000E+00
  0.00000000E+00  0.00000000E+00  0.00000000E+00
  0.00000000E+00  0.00000000E+00  0.00000000E+00
  0.00000000E+00  0.00000000E+00  0.00000000E+00
  0.00000000E+00  0.00000000E+00  0.00000000E+00
  0.00000000E+00  0.00000000E+00  0.00000000E+00
  0.00000000E+00  0.00000000E+00  0.00000000E+00
  0.00000000E+00  0.00000000E+00  0.00000000E+00
  0.00000000E+00  0.00000000E+00  0.00000000E+00
  0.00000000E+00  0.00000000E+00  0.00000000E+00
  0.00000000E+00  0.00000000E+00  0.00000000E+00
  0.00000000E+00  0.00000000E+00  0.00000000E+00
